Pb  I Cs Pb  I Cs 
 1.0000000000000000
    50.7702668891941116   20.3081067556776453    0.0000000000000000
   -20.3081067556776453   50.7702668891941116    0.0000000000000000
     0.0000000000000000    0.0000000000000000   33.1800000000000068
 Pb  I   Cs  Pb  I   Cs 
  58 232 116  58 232 116
Cartesian
 -7.6155400333791174 33.0006734779761857 22.0899999999999999
 -7.6155400333791210 43.1547268558150137 22.0899999999999999
 -7.6155400333791192 53.3087802336538417 22.0899999999999999
  2.5385133444597052  2.5385133444597052 22.0899999999999999
  2.5385133444597061 12.6925667222985279 22.0899999999999999
  2.5385133444597088 22.8466201001373506 22.0899999999999999
  2.5385133444597034 33.0006734779761786 22.0899999999999999
  2.5385133444597052 43.1547268558150137 22.0899999999999999
  2.5385133444597088 53.3087802336538417 22.0899999999999999
 12.6925667222985297 12.6925667222985297 22.0899999999999999
 12.6925667222985368 22.8466201001373541 22.0899999999999999
 12.6925667222985261 33.0006734779761786 22.0899999999999999
 12.6925667222985243 43.1547268558150137 22.0899999999999999
 12.6925667222985261 53.3087802336538275 22.0899999999999999
 12.6925667222985297 63.4628336114926555 22.0899999999999999
 22.8466201001373541 12.6925667222985297 22.0899999999999999
 22.8466201001373506 22.8466201001373577 22.0899999999999999
 22.8466201001373577 33.0006734779761857 22.0899999999999999
 22.8466201001373577 43.1547268558149995 22.0899999999999999
 22.8466201001373435 53.3087802336538417 22.0899999999999999
 22.8466201001373470 63.4628336114926697 22.0899999999999999
 33.0006734779761786 22.8466201001373577 22.0899999999999999
 33.0006734779761715 33.0006734779761857 22.0899999999999999
 33.0006734779761643 43.1547268558150137 22.0899999999999999
 33.0006734779761715 53.3087802336538346 22.0899999999999999
 33.0006734779761643 63.4628336114926555 22.0899999999999999
 43.1547268558149995 22.8466201001373506 22.0899999999999999
 43.1547268558149923 33.0006734779761786 22.0899999999999999
 -7.6155400333791166 22.8466201001373612 22.0899999999999999
 -2.5385133444597034 38.0777001668956032 22.0899999999999999
 -2.5385133444597070 48.2317535447344241 22.0899999999999999
 17.7695934112179437  7.6155400333791299 22.0899999999999999
  7.6155400333791174  7.6155400333791183 22.0899999999999999
  7.6155400333791139 17.7695934112179437 22.0899999999999999
  7.6155400333791174 27.9236467890567681 22.0899999999999999
  7.6155400333791192 38.0777001668955961 22.0899999999999999
  7.6155400333791157 48.2317535447344170 22.0899999999999999
  7.6155400333791192 58.3858069225732521 22.0899999999999999
 17.7695934112179366 17.7695934112179401 22.0899999999999999
 17.7695934112179401 27.9236467890567646 22.0899999999999999
 17.7695934112179401 38.0777001668955890 22.0899999999999999
 17.7695934112179401 48.2317535447344241 22.0899999999999999
 17.7695934112179330 58.3858069225732450 22.0899999999999999
 38.0777001668955890 17.7695934112179401 22.0899999999999999
 27.9236467890567610 17.7695934112179401 22.0899999999999999
 27.9236467890567681 27.9236467890567681 22.0899999999999999
 27.9236467890567646 38.0777001668955890 22.0899999999999999
 27.9236467890567539 48.2317535447344170 22.0899999999999999
 27.9236467890567646 58.3858069225732379 22.0899999999999999
 27.9236467890567646 68.5398603004120588 22.0899999999999999
 38.0777001668955890 27.9236467890567610 22.0899999999999999
 38.0777001668955890 38.0777001668955890 22.0899999999999999
 38.0777001668955748 48.2317535447344170 22.0899999999999999
 -12.6925667222985261 38.0777001668955890 22.0899999999999999
 -12.6925667222985368 48.2317535447344099 22.0899999999999999
 -2.5385133444596955  7.6155400333791201 22.0899999999999999
 -2.5385133444597026 17.7695934112179437 22.0899999999999999
 -2.5385133444596990 27.9236467890567788 22.0899999999999999
 -7.6155400333791174 33.0006734779761857 18.5000000000000000
 -7.6155400333791210 43.1547268558150137 18.5000000000000000
 -7.6155400333791192 53.3087802336538417 18.5000000000000000
  2.5385133444597052  2.5385133444597052 18.5000000000000000
  2.5385133444597061 12.6925667222985279 18.5000000000000000
  2.5385133444597088 22.8466201001373506 18.5000000000000000
  2.5385133444597034 33.0006734779761786 18.5000000000000000
  2.5385133444597052 43.1547268558150137 18.5000000000000000
  2.5385133444597088 53.3087802336538417 18.5000000000000000
 12.6925667222985297 12.6925667222985297 18.5000000000000000
 12.6925667222985368 22.8466201001373541 18.5000000000000000
 12.6925667222985261 33.0006734779761786 18.5000000000000000
 12.6925667222985243 43.1547268558150137 18.5000000000000000
 12.6925667222985261 53.3087802336538275 18.5000000000000000
 12.6925667222985297 63.4628336114926555 18.5000000000000000
 22.8466201001373541 12.6925667222985297 18.5000000000000000
 22.8466201001373506 22.8466201001373577 18.5000000000000000
 22.8466201001373577 33.0006734779761857 18.5000000000000000
 22.8466201001373577 43.1547268558149995 18.5000000000000000
 22.8466201001373435 53.3087802336538417 18.5000000000000000
 22.8466201001373470 63.4628336114926697 18.5000000000000000
 33.0006734779761786 22.8466201001373577 18.5000000000000000
 33.0006734779761715 33.0006734779761857 18.5000000000000000
 33.0006734779761643 43.1547268558150137 18.5000000000000000
 33.0006734779761715 53.3087802336538346 18.5000000000000000
 33.0006734779761643 63.4628336114926555 18.5000000000000000
 43.1547268558149995 22.8466201001373506 18.5000000000000000
 43.1547268558149923 33.0006734779761786 18.5000000000000000
 -7.6155400333791166 22.8466201001373612 18.5000000000000000
 -2.5385133444597034 38.0777001668956032 18.5000000000000000
 -2.5385133444597070 48.2317535447344241 18.5000000000000000
 17.7695934112179437  7.6155400333791299 18.5000000000000000
  7.6155400333791174  7.6155400333791183 18.5000000000000000
  7.6155400333791139 17.7695934112179437 18.5000000000000000
  7.6155400333791174 27.9236467890567681 18.5000000000000000
  7.6155400333791192 38.0777001668955961 18.5000000000000000
  7.6155400333791157 48.2317535447344170 18.5000000000000000
  7.6155400333791192 58.3858069225732521 18.5000000000000000
 17.7695934112179366 17.7695934112179401 18.5000000000000000
 17.7695934112179401 27.9236467890567646 18.5000000000000000
 17.7695934112179401 38.0777001668955890 18.5000000000000000
 17.7695934112179401 48.2317535447344241 18.5000000000000000
 17.7695934112179330 58.3858069225732450 18.5000000000000000
 38.0777001668955890 17.7695934112179401 18.5000000000000000
 27.9236467890567610 17.7695934112179401 18.5000000000000000
 27.9236467890567681 27.9236467890567681 18.5000000000000000
 27.9236467890567646 38.0777001668955890 18.5000000000000000
 27.9236467890567539 48.2317535447344170 18.5000000000000000
 27.9236467890567646 58.3858069225732379 18.5000000000000000
 27.9236467890567646 68.5398603004120588 18.5000000000000000
 38.0777001668955890 27.9236467890567610 18.5000000000000000
 38.0777001668955890 38.0777001668955890 18.5000000000000000
 38.0777001668955748 48.2317535447344170 18.5000000000000000
 -12.6925667222985261 38.0777001668955890 18.5000000000000000
 -12.6925667222985368 48.2317535447344099 18.5000000000000000
 -2.5385133444596955  7.6155400333791201 18.5000000000000000
 -2.5385133444597026 17.7695934112179437 18.5000000000000000
 -2.5385133444596990 27.9236467890567788 18.5000000000000000
 -10.1540533778388244 30.4621601335164840 22.0899999999999999
 -10.1540533778388191 40.6162135113552907 22.0899999999999999
 -10.1540533778388191 50.7702668891941329 22.0899999999999999
  0.0000000000000000  0.0000000000000000 22.0899999999999999
  0.0000000000000004 10.1540533778388262 22.0899999999999999
  0.0000000000000009 20.3081067556776524 22.0899999999999999
  0.0000000000000000 30.4621601335164733 22.0899999999999999
  0.0000000000000018 40.6162135113553049 22.0899999999999999
  0.0000000000000000 50.7702668891941258 22.0899999999999999
 10.1540533778388244 10.1540533778388244 22.0899999999999999
 10.1540533778388244 20.3081067556776453 22.0899999999999999
 10.1540533778388209 30.4621601335164733 22.0899999999999999
 10.1540533778388227 40.6162135113552907 22.0899999999999999
 10.1540533778388244 50.7702668891941116 22.0899999999999999
 10.1540533778388173 60.9243202670329538 22.0899999999999999
 20.3081067556776489 10.1540533778388209 22.0899999999999999
 20.3081067556776489 20.3081067556776489 22.0899999999999999
 20.3081067556776489 30.4621601335164733 22.0899999999999999
 20.3081067556776489 40.6162135113552907 22.0899999999999999
 20.3081067556776453 50.7702668891941187 22.0899999999999999
 20.3081067556776418 60.9243202670329467 22.0899999999999999
 30.4621601335164733 20.3081067556776453 22.0899999999999999
 30.4621601335164698 30.4621601335164733 22.0899999999999999
 30.4621601335164662 40.6162135113552907 22.0899999999999999
 30.4621601335164698 50.7702668891941116 22.0899999999999999
 30.4621601335164591 60.9243202670329680 22.0899999999999999
 40.6162135113552978 20.3081067556776418 22.0899999999999999
 40.6162135113552907 30.4621601335164733 22.0899999999999999
 40.6162135113552978 40.6162135113552978 22.0899999999999999
 -5.0770266889194096 30.4621601335164733 22.0899999999999999
 -5.0770266889194087 40.6162135113552907 22.0899999999999999
 -5.0770266889194122 50.7702668891941258 22.0899999999999999
 -15.2310800667582349 50.7702668891941116 22.0899999999999999
  5.0770266889194104 10.1540533778388209 22.0899999999999999
  5.0770266889194113 20.3081067556776453 22.0899999999999999
  5.0770266889194087 30.4621601335164769 22.0899999999999999
  5.0770266889194122 40.6162135113552907 22.0899999999999999
  5.0770266889194140 50.7702668891941187 22.0899999999999999
 15.2310800667582349 10.1540533778388244 22.0899999999999999
 15.2310800667582420 20.3081067556776453 22.0899999999999999
 15.2310800667582296 30.4621601335164840 22.0899999999999999
 15.2310800667582296 40.6162135113553049 22.0899999999999999
 15.2310800667582313 50.7702668891941116 22.0899999999999999
 15.2310800667582278 60.9243202670329609 22.0899999999999999
 25.3851334445970558 10.1540533778388227 22.0899999999999999
 25.3851334445970629 20.3081067556776560 22.0899999999999999
 25.3851334445970593 30.4621601335164733 22.0899999999999999
 25.3851334445970664 40.6162135113552907 22.0899999999999999
 25.3851334445970629 50.7702668891941187 22.0899999999999999
 25.3851334445970487 60.9243202670329467 22.0899999999999999
 35.5391868224358873 20.3081067556776453 22.0899999999999999
 35.5391868224358802 30.4621601335164804 22.0899999999999999
 35.5391868224358802 40.6162135113553049 22.0899999999999999
 35.5391868224358873 50.7702668891941116 22.0899999999999999
 -15.2310800667582313 40.6162135113553120 22.0899999999999999
 45.6932402002747082 20.3081067556776524 22.0899999999999999
 45.6932402002747011 30.4621601335164698 22.0899999999999999
 -5.0770266889194051 20.3081067556776595 22.0899999999999999
 -10.1540533778388227 35.5391868224358802 22.0899999999999999
 -10.1540533778388227 45.6932402002747153 22.0899999999999999
 10.1540533778388227  5.0770266889194202 22.0899999999999999
  0.0000000000000002  5.0770266889194131 22.0899999999999999
  0.0000000000000000 15.2310800667582367 22.0899999999999999
  0.0000000000000000 25.3851334445970629 22.0899999999999999
  0.0000000000000000 35.5391868224358802 22.0899999999999999
 -0.0000000000000018 45.6932402002747082 22.0899999999999999
  0.0000000000000036 55.8472935781135433 22.0899999999999999
 10.1540533778388244 15.2310800667582367 22.0899999999999999
 10.1540533778388227 25.3851334445970593 22.0899999999999999
 10.1540533778388244 35.5391868224358802 22.0899999999999999
 10.1540533778388227 45.6932402002747153 22.0899999999999999
 10.1540533778388138 55.8472935781135433 22.0899999999999999
 30.4621601335164698 15.2310800667582456 22.0899999999999999
 20.3081067556776453 15.2310800667582367 22.0899999999999999
 20.3081067556776489 25.3851334445970593 22.0899999999999999
 20.3081067556776489 35.5391868224358802 22.0899999999999999
 20.3081067556776524 45.6932402002747082 22.0899999999999999
 20.3081067556776418 55.8472935781135362 22.0899999999999999
 20.3081067556776347 66.0013469559523713 22.0899999999999999
 30.4621601335164698 25.3851334445970558 22.0899999999999999
 30.4621601335164698 35.5391868224358802 22.0899999999999999
 30.4621601335164627 45.6932402002747153 22.0899999999999999
 30.4621601335164698 55.8472935781135220 22.0899999999999999
 30.4621601335164520 66.0013469559523571 22.0899999999999999
 40.6162135113552978 25.3851334445970522 22.0899999999999999
 40.6162135113552836 35.5391868224358802 22.0899999999999999
 -10.1540533778388244 25.3851334445970664 22.0899999999999999
 -5.0770266889194096 35.5391868224358873 22.0899999999999999
 -5.0770266889194122 45.6932402002747082 22.0899999999999999
 -5.0770266889194104 55.8472935781135433 22.0899999999999999
  5.0770266889194104  5.0770266889194104 22.0899999999999999
  5.0770266889194104 15.2310800667582367 22.0899999999999999
  5.0770266889194122 25.3851334445970558 22.0899999999999999
  5.0770266889194122 35.5391868224358944 22.0899999999999999
  5.0770266889194176 45.6932402002747011 22.0899999999999999
  5.0770266889194140 55.8472935781135433 22.0899999999999999
 15.2310800667582349 15.2310800667582367 22.0899999999999999
 15.2310800667582384 25.3851334445970593 22.0899999999999999
 15.2310800667582278 35.5391868224358873 22.0899999999999999
 15.2310800667582384 45.6932402002747082 22.0899999999999999
 15.2310800667582349 55.8472935781135362 22.0899999999999999
 35.5391868224358802 15.2310800667582562 22.0899999999999999
 25.3851334445970522 15.2310800667582349 22.0899999999999999
 25.3851334445970593 25.3851334445970593 22.0899999999999999
 25.3851334445970558 35.5391868224358944 22.0899999999999999
 25.3851334445970735 45.6932402002747082 22.0899999999999999
 25.3851334445970558 55.8472935781135433 22.0899999999999999
 25.3851334445970522 66.0013469559523571 22.0899999999999999
 35.5391868224358873 25.3851334445970558 22.0899999999999999
 35.5391868224358731 35.5391868224358802 22.0899999999999999
 35.5391868224358802 45.6932402002747011 22.0899999999999999
 35.5391868224358802 55.8472935781135291 22.0899999999999999
 -15.2310800667582296 45.6932402002747224 22.0899999999999999
 45.6932402002747082 25.3851334445970593 22.0899999999999999
 -5.0770266889194149 15.2310800667582349 22.0899999999999999
 -5.0770266889194113 25.3851334445970700 22.0899999999999999
 -7.6155400333791174 33.0006734779761857 25.6800000000000033
 -7.6155400333791210 43.1547268558150137 25.6800000000000033
 -7.6155400333791192 53.3087802336538417 25.6800000000000033
  2.5385133444597052  2.5385133444597052 25.6800000000000033
  2.5385133444597061 12.6925667222985279 25.6800000000000033
  2.5385133444597088 22.8466201001373506 25.6800000000000033
  2.5385133444597034 33.0006734779761786 25.6800000000000033
  2.5385133444597052 43.1547268558150137 25.6800000000000033
  2.5385133444597088 53.3087802336538417 25.6800000000000033
 12.6925667222985297 12.6925667222985297 25.6800000000000033
 12.6925667222985368 22.8466201001373541 25.6800000000000033
 12.6925667222985261 33.0006734779761786 25.6800000000000033
 12.6925667222985243 43.1547268558150137 25.6800000000000033
 12.6925667222985261 53.3087802336538275 25.6800000000000033
 12.6925667222985297 63.4628336114926555 25.6800000000000033
 22.8466201001373541 12.6925667222985297 25.6800000000000033
 22.8466201001373506 22.8466201001373577 25.6800000000000033
 22.8466201001373577 33.0006734779761857 25.6800000000000033
 22.8466201001373577 43.1547268558149995 25.6800000000000033
 22.8466201001373435 53.3087802336538417 25.6800000000000033
 22.8466201001373470 63.4628336114926697 25.6800000000000033
 33.0006734779761786 22.8466201001373577 25.6800000000000033
 33.0006734779761715 33.0006734779761857 25.6800000000000033
 33.0006734779761643 43.1547268558150137 25.6800000000000033
 33.0006734779761715 53.3087802336538346 25.6800000000000033
 33.0006734779761643 63.4628336114926555 25.6800000000000033
 43.1547268558149995 22.8466201001373506 25.6800000000000033
 43.1547268558149923 33.0006734779761786 25.6800000000000033
 -7.6155400333791166 22.8466201001373612 25.6800000000000033
 -2.5385133444597034 38.0777001668956032 25.6800000000000033
 -2.5385133444597070 48.2317535447344241 25.6800000000000033
 17.7695934112179437  7.6155400333791299 25.6800000000000033
  7.6155400333791174  7.6155400333791183 25.6800000000000033
  7.6155400333791139 17.7695934112179437 25.6800000000000033
  7.6155400333791174 27.9236467890567681 25.6800000000000033
  7.6155400333791192 38.0777001668955961 25.6800000000000033
  7.6155400333791157 48.2317535447344170 25.6800000000000033
  7.6155400333791192 58.3858069225732521 25.6800000000000033
 17.7695934112179366 17.7695934112179401 25.6800000000000033
 17.7695934112179401 27.9236467890567646 25.6800000000000033
 17.7695934112179401 38.0777001668955890 25.6800000000000033
 17.7695934112179401 48.2317535447344241 25.6800000000000033
 17.7695934112179330 58.3858069225732450 25.6800000000000033
 38.0777001668955890 17.7695934112179401 25.6800000000000033
 27.9236467890567610 17.7695934112179401 25.6800000000000033
 27.9236467890567681 27.9236467890567681 25.6800000000000033
 27.9236467890567646 38.0777001668955890 25.6800000000000033
 27.9236467890567539 48.2317535447344170 25.6800000000000033
 27.9236467890567646 58.3858069225732379 25.6800000000000033
 27.9236467890567646 68.5398603004120588 25.6800000000000033
 38.0777001668955890 27.9236467890567610 25.6800000000000033
 38.0777001668955890 38.0777001668955890 25.6800000000000033
 38.0777001668955748 48.2317535447344170 25.6800000000000033
 -12.6925667222985261 38.0777001668955890 25.6800000000000033
 -12.6925667222985368 48.2317535447344099 25.6800000000000033
 -2.5385133444596955  7.6155400333791201 25.6800000000000033
 -2.5385133444597026 17.7695934112179437 25.6800000000000033
 -2.5385133444596990 27.9236467890567788 25.6800000000000033
 -7.6155400333791157 38.0777001668955961 19.4399999999999977
 -7.6155400333791174 48.2317535447344241 19.4399999999999977
 12.6925667222985314  7.6155400333791325 19.4399999999999977
  2.5385133444597052  7.6155400333791183 19.4399999999999977
  2.5385133444597061 17.7695934112179472 19.4399999999999977
  2.5385133444597017 27.9236467890567717 19.4399999999999977
  2.5385133444597088 38.0777001668955890 19.4399999999999977
  2.5385133444597088 48.2317535447344099 19.4399999999999977
  2.5385133444597088 58.3858069225732521 19.4399999999999977
 12.6925667222985279 17.7695934112179472 19.4399999999999977
 12.6925667222985279 27.9236467890567717 19.4399999999999977
 12.6925667222985279 38.0777001668955961 19.4399999999999977
 12.6925667222985226 48.2317535447344170 19.4399999999999977
 12.6925667222985332 58.3858069225732379 19.4399999999999977
 33.0006734779761786 17.7695934112179472 19.4399999999999977
 22.8466201001373506 17.7695934112179472 19.4399999999999977
 22.8466201001373470 27.9236467890567681 19.4399999999999977
 22.8466201001373577 38.0777001668955890 19.4399999999999977
 22.8466201001373577 48.2317535447344099 19.4399999999999977
 22.8466201001373541 58.3858069225732308 19.4399999999999977
 43.1547268558149923 17.7695934112179508 19.4399999999999977
 33.0006734779761786 27.9236467890567681 19.4399999999999977
 33.0006734779761786 38.0777001668955890 19.4399999999999977
 33.0006734779761643 48.2317535447344170 19.4399999999999977
 33.0006734779761786 58.3858069225732379 19.4399999999999977
 -17.7695934112179366 48.2317535447344241 19.4399999999999977
 43.1547268558149923 27.9236467890567610 19.4399999999999977
 43.1547268558149995 38.0777001668955819 19.4399999999999977
 -7.6155400333791103 27.9236467890567752 19.4399999999999977
 -2.5385133444597052 33.0006734779761928 19.4399999999999977
 -2.5385133444597070 43.1547268558150208 19.4399999999999977
 -2.5385133444597052 53.3087802336538488 19.4399999999999977
 -12.6925667222985261 53.3087802336538275 19.4399999999999977
  7.6155400333791174 12.6925667222985279 19.4399999999999977
  7.6155400333791192 22.8466201001373541 19.4399999999999977
  7.6155400333791157 33.0006734779761857 19.4399999999999977
  7.6155400333791157 43.1547268558150137 19.4399999999999977
  7.6155400333791157 53.3087802336538417 19.4399999999999977
 17.7695934112179401 12.6925667222985297 19.4399999999999977
 17.7695934112179437 22.8466201001373541 19.4399999999999977
 17.7695934112179401 33.0006734779761857 19.4399999999999977
 17.7695934112179330 43.1547268558150137 19.4399999999999977
 17.7695934112179330 53.3087802336538346 19.4399999999999977
 17.7695934112179366 63.4628336114926555 19.4399999999999977
 27.9236467890567681 12.6925667222985243 19.4399999999999977
 27.9236467890567681 22.8466201001373541 19.4399999999999977
 27.9236467890567646 33.0006734779761857 19.4399999999999977
 27.9236467890567610 43.1547268558150066 19.4399999999999977
 27.9236467890567610 53.3087802336538203 19.4399999999999977
 27.9236467890567539 63.4628336114926626 19.4399999999999977
 38.0777001668955819 22.8466201001373541 19.4399999999999977
 38.0777001668955890 33.0006734779761786 19.4399999999999977
 38.0777001668955819 43.1547268558149995 19.4399999999999977
 -12.6925667222985208 33.0006734779761857 19.4399999999999977
 -12.6925667222985386 43.1547268558150137 19.4399999999999977
 48.2317535447344099 22.8466201001373541 19.4399999999999977
 -2.5385133444597066 12.6925667222985368 19.4399999999999977
 -2.5385133444597017 22.8466201001373683 19.4399999999999977
 -7.6155400333791157 38.0777001668955961 24.7400000000000020
 -7.6155400333791174 48.2317535447344241 24.7400000000000020
 12.6925667222985314  7.6155400333791325 24.7400000000000020
  2.5385133444597052  7.6155400333791183 24.7400000000000020
  2.5385133444597061 17.7695934112179472 24.7400000000000020
  2.5385133444597017 27.9236467890567717 24.7400000000000020
  2.5385133444597088 38.0777001668955890 24.7400000000000020
  2.5385133444597088 48.2317535447344099 24.7400000000000020
  2.5385133444597088 58.3858069225732521 24.7400000000000020
 12.6925667222985279 17.7695934112179472 24.7400000000000020
 12.6925667222985279 27.9236467890567717 24.7400000000000020
 12.6925667222985279 38.0777001668955961 24.7400000000000020
 12.6925667222985226 48.2317535447344170 24.7400000000000020
 12.6925667222985332 58.3858069225732379 24.7400000000000020
 33.0006734779761786 17.7695934112179472 24.7400000000000020
 22.8466201001373506 17.7695934112179472 24.7400000000000020
 22.8466201001373470 27.9236467890567681 24.7400000000000020
 22.8466201001373577 38.0777001668955890 24.7400000000000020
 22.8466201001373577 48.2317535447344099 24.7400000000000020
 22.8466201001373541 58.3858069225732308 24.7400000000000020
 43.1547268558149923 17.7695934112179508 24.7400000000000020
 33.0006734779761786 27.9236467890567681 24.7400000000000020
 33.0006734779761786 38.0777001668955890 24.7400000000000020
 33.0006734779761643 48.2317535447344170 24.7400000000000020
 33.0006734779761786 58.3858069225732379 24.7400000000000020
 -17.7695934112179366 48.2317535447344241 24.7400000000000020
 43.1547268558149923 27.9236467890567610 24.7400000000000020
 43.1547268558149995 38.0777001668955819 24.7400000000000020
 -7.6155400333791103 27.9236467890567752 24.7400000000000020
 -2.5385133444597052 33.0006734779761928 24.7400000000000020
 -2.5385133444597070 43.1547268558150208 24.7400000000000020
 -2.5385133444597052 53.3087802336538488 24.7400000000000020
 -12.6925667222985261 53.3087802336538275 24.7400000000000020
  7.6155400333791174 12.6925667222985279 24.7400000000000020
  7.6155400333791192 22.8466201001373541 24.7400000000000020
  7.6155400333791157 33.0006734779761857 24.7400000000000020
  7.6155400333791157 43.1547268558150137 24.7400000000000020
  7.6155400333791157 53.3087802336538417 24.7400000000000020
 17.7695934112179401 12.6925667222985297 24.7400000000000020
 17.7695934112179437 22.8466201001373541 24.7400000000000020
 17.7695934112179401 33.0006734779761857 24.7400000000000020
 17.7695934112179330 43.1547268558150137 24.7400000000000020
 17.7695934112179330 53.3087802336538346 24.7400000000000020
 17.7695934112179366 63.4628336114926555 24.7400000000000020
 27.9236467890567681 12.6925667222985243 24.7400000000000020
 27.9236467890567681 22.8466201001373541 24.7400000000000020
 27.9236467890567646 33.0006734779761857 24.7400000000000020
 27.9236467890567610 43.1547268558150066 24.7400000000000020
 27.9236467890567610 53.3087802336538203 24.7400000000000020
 27.9236467890567539 63.4628336114926626 24.7400000000000020
 38.0777001668955819 22.8466201001373541 24.7400000000000020
 38.0777001668955890 33.0006734779761786 24.7400000000000020
 38.0777001668955819 43.1547268558149995 24.7400000000000020
 -12.6925667222985208 33.0006734779761857 24.7400000000000020
 -12.6925667222985386 43.1547268558150137 24.7400000000000020
 48.2317535447344099 22.8466201001373541 24.7400000000000020
 -2.5385133444597066 12.6925667222985368 24.7400000000000020
 -2.5385133444597017 22.8466201001373683 24.7400000000000020
  0.0875349429124028  3.5889326594085502 11.0899999999999999
  7.4404701475543069 10.5917280924008423 11.0899999999999999
  0.4376747145620179 17.9446632970427480 11.0899999999999999
 -6.5651207184302773 25.2975985016846607 11.0899999999999999
 14.7934053521962099 17.5945235253931358 11.0899999999999999
  7.7906099192039138 24.9474587300350450 11.0899999999999999
  0.7878144862116265 32.3003939346769471 11.0899999999999999
 -6.2149809467806634 39.6533291393188563 11.0899999999999999
 -13.2177763797729639 47.0062643439607726 11.0899999999999999
 29.1491359898304125 17.2443837537435201 11.0899999999999999
 22.1463405568381226 24.5973189583854257 11.0899999999999999
 15.1435451238458292 31.9502541630273384 11.0899999999999999
  8.1407496908535339 39.3031893676692476 11.0899999999999999
  1.1379542578612352 46.6561245723111639 11.0899999999999999
 -5.8648411751310565 54.0090597769530589 11.0899999999999999
 36.5020711944723075 24.2471791867358064 11.0899999999999999
 29.4992757614800212 31.6001143913777263 11.0899999999999999
 22.4964803284877206 38.9530495960196390 11.0899999999999999
 15.4936848954954360 46.3059848006615482 11.0899999999999999
  8.4908894625031479 53.6589200053034503 11.0899999999999999
 21.7962007851884891 10.2415883207512408 11.0899999999999999
 43.8550063991142167 31.2499746197281070 11.0899999999999999
 36.8522109661219304 38.6029098243700162 11.0899999999999999
 29.8494155331296440 45.9558450290119396 11.0899999999999999
 22.8466201001373435 53.3087802336538346 11.0899999999999999
 15.8438246671450464 60.6617154382957509 11.0899999999999999
 37.2023507377715461 52.9586404620042117 11.0899999999999999
 30.1995553047792527 60.3115756666461351 11.0899999999999999
 23.1967598717869521 67.6645108712880301 11.0899999999999999
  0.2626048287372091 10.7667979782256520 11.0899999999999999
  7.6155400333791121 17.7695934112179437 11.0899999999999999
  0.6127446003868240 25.1225286158598529 11.0899999999999999
 -6.3900508326054739 32.4754638205017656 11.0899999999999999
 14.9684752380210249 24.7723888442102407 11.0899999999999999
  7.9656798050287243 32.1253240488521499 11.0899999999999999
  0.9628843720364291 39.4782592534940591 11.0899999999999999
 -6.0399110609558626 46.8311944581359612 11.0899999999999999
  7.2654002617294902  3.4138627735837490 11.0899999999999999
 29.3242058756552240 24.4222490725606285 11.0899999999999999
 22.3214104426629305 31.7751842772025341 11.0899999999999999
 15.3186150096706371 39.1281194818444433 11.0899999999999999
  8.3158195766783400 46.4810546864863454 11.0899999999999999
  1.3130241436860466 53.8339898911282475 11.0899999999999999
 14.6183354663713967 10.4166582065760380 11.0899999999999999
 36.6771410802971261 31.4250445055529113 11.0899999999999999
 29.6743456473048326 38.7779797101948276 11.0899999999999999
 22.6715502143125356 46.1309149148367368 11.0899999999999999
 15.6687547813202492 53.4838501194786460 11.0899999999999999
  8.6659593483279522 60.8367853241205410 11.0899999999999999
 21.9712706710133077 17.4194536395683386 11.0899999999999999
 -6.7401906042550861 18.1197331828675665 11.0899999999999999
 37.0272808519467418 45.7807751431871210 11.0899999999999999
 30.0244854189544270 53.1337103478290231 11.0899999999999999
 23.0216899859621513 60.4866455524709252 11.0899999999999999
 36.3270013086474890 17.0693138679187193 11.0899999999999999
 -13.3928462655977576 39.8283990251436677 11.0899999999999999
 30.3746251906040534 67.4894409854632471 11.0899999999999999
 43.6799365132893911 24.0721093009110021 11.0899999999999999
  0.0875349429124028  3.5889326594085502  7.5000000000000000
  7.4404701475543069 10.5917280924008423  7.5000000000000000
  0.4376747145620179 17.9446632970427480  7.5000000000000000
 -6.5651207184302773 25.2975985016846607  7.5000000000000000
 14.7934053521962099 17.5945235253931358  7.5000000000000000
  7.7906099192039138 24.9474587300350450  7.5000000000000000
  0.7878144862116265 32.3003939346769471  7.5000000000000000
 -6.2149809467806634 39.6533291393188563  7.5000000000000000
 -13.2177763797729639 47.0062643439607726  7.5000000000000000
 29.1491359898304125 17.2443837537435201  7.5000000000000000
 22.1463405568381226 24.5973189583854257  7.5000000000000000
 15.1435451238458292 31.9502541630273384  7.5000000000000000
  8.1407496908535339 39.3031893676692476  7.5000000000000000
  1.1379542578612352 46.6561245723111639  7.5000000000000000
 -5.8648411751310565 54.0090597769530589  7.5000000000000000
 36.5020711944723075 24.2471791867358064  7.5000000000000000
 29.4992757614800212 31.6001143913777263  7.5000000000000000
 22.4964803284877206 38.9530495960196390  7.5000000000000000
 15.4936848954954360 46.3059848006615482  7.5000000000000000
  8.4908894625031479 53.6589200053034503  7.5000000000000000
 21.7962007851884891 10.2415883207512408  7.5000000000000000
 43.8550063991142167 31.2499746197281070  7.5000000000000000
 36.8522109661219304 38.6029098243700162  7.5000000000000000
 29.8494155331296440 45.9558450290119396  7.5000000000000000
 22.8466201001373435 53.3087802336538346  7.5000000000000000
 15.8438246671450464 60.6617154382957509  7.5000000000000000
 37.2023507377715461 52.9586404620042117  7.5000000000000000
 30.1995553047792527 60.3115756666461351  7.5000000000000000
 23.1967598717869521 67.6645108712880301  7.5000000000000000
  0.2626048287372091 10.7667979782256520  7.5000000000000000
  7.6155400333791121 17.7695934112179437  7.5000000000000000
  0.6127446003868240 25.1225286158598529  7.5000000000000000
 -6.3900508326054739 32.4754638205017656  7.5000000000000000
 14.9684752380210249 24.7723888442102407  7.5000000000000000
  7.9656798050287243 32.1253240488521499  7.5000000000000000
  0.9628843720364291 39.4782592534940591  7.5000000000000000
 -6.0399110609558626 46.8311944581359612  7.5000000000000000
  7.2654002617294902  3.4138627735837490  7.5000000000000000
 29.3242058756552240 24.4222490725606285  7.5000000000000000
 22.3214104426629305 31.7751842772025341  7.5000000000000000
 15.3186150096706371 39.1281194818444433  7.5000000000000000
  8.3158195766783400 46.4810546864863454  7.5000000000000000
  1.3130241436860466 53.8339898911282475  7.5000000000000000
 14.6183354663713967 10.4166582065760380  7.5000000000000000
 36.6771410802971261 31.4250445055529113  7.5000000000000000
 29.6743456473048326 38.7779797101948276  7.5000000000000000
 22.6715502143125356 46.1309149148367368  7.5000000000000000
 15.6687547813202492 53.4838501194786460  7.5000000000000000
  8.6659593483279522 60.8367853241205410  7.5000000000000000
 21.9712706710133077 17.4194536395683386  7.5000000000000000
 -6.7401906042550861 18.1197331828675665  7.5000000000000000
 37.0272808519467418 45.7807751431871210  7.5000000000000000
 30.0244854189544270 53.1337103478290231  7.5000000000000000
 23.0216899859621513 60.4866455524709252  7.5000000000000000
 36.3270013086474890 17.0693138679187193  7.5000000000000000
 -13.3928462655977576 39.8283990251436677  7.5000000000000000
 30.3746251906040534 67.4894409854632471  7.5000000000000000
 43.6799365132893911 24.0721093009110021  7.5000000000000000
  0.0000000000000000  0.0000000000000000 11.0899999999999999
  7.3529352046419056  7.0027954329922943 11.0899999999999999
  0.3501397716496104 14.3557306376342027 11.0899999999999999
 -6.6526556613426822 21.7086658422761083 11.0899999999999999
 14.7058704092838113 14.0055908659845887 11.0899999999999999
  7.7030749762915143 21.3585260706264997 11.0899999999999999
  0.7002795432992208 28.7114612752684053 11.0899999999999999
 -6.3025158896930691 36.0643964799103145 11.0899999999999999
 -13.3053113226853643 43.4173316845522166 11.0899999999999999
 29.0616010469180104 13.6554510943349747 11.0899999999999999
 22.0588056139257240 21.0083862989768804 11.0899999999999999
 15.0560101809334235 28.3613215036187896 11.0899999999999999
  8.0532147479411300 35.7142567082606917 11.0899999999999999
  1.0504193149488366 43.0671919129026080 11.0899999999999999
 -5.9523761180434587 50.4201271175445029 11.0899999999999999
 36.4145362515599160 20.6582465273272611 11.0899999999999999
 29.4117408185676226 28.0111817319691774 11.0899999999999999
 22.4089453855753256 35.3641169366110759 11.0899999999999999
 15.4061499525830286 42.7170521412529993 11.0899999999999999
  8.4033545195907386 50.0699873458948872 11.0899999999999999
  1.4005590865984416 57.4229225505368106 11.0899999999999999
 43.7674714562018181 27.6610419603195581 11.0899999999999999
 36.7646760232095318 35.0139771649614602 11.0899999999999999
 29.7618805902172312 42.3669123696033836 11.0899999999999999
 22.7590851572249484 49.7198475742452715 11.0899999999999999
 15.7562897242326372 57.0727827788871878 11.0899999999999999
 37.1148157948591475 49.3697078025956699 11.0899999999999999
 30.1120203618668469 56.7226430072375791 11.0899999999999999
 23.1092249288745357 64.0755782118794883 11.0899999999999999
  3.6764676023209515  3.5013977164961458 11.0899999999999999
 11.0294028069628620 10.5041931494884402 11.0899999999999999
  4.0266073739705641 17.8571283541303494 11.0899999999999999
 -2.9761880590217311 25.2100635587722621 11.0899999999999999
 18.3823380116047659 17.5069885824807301 11.0899999999999999
 11.3795425786124724 24.8599237871226393 11.0899999999999999
  4.3767471456201772 32.2128589917645485 11.0899999999999999
 -2.6260482873721198 39.5657941964064648 11.0899999999999999
 -9.6288437203644115 46.9187294010483740 11.0899999999999999
 32.7380686492389614 17.1568488108311072 11.0899999999999999
 25.7352732162466680 24.5097840154730235 11.0899999999999999
 18.7324777832543745 31.8627192201149398 11.0899999999999999
 11.7296823502620811 39.2156544247568348 11.0899999999999999
  4.7268869172697894 46.5685896293987511 11.0899999999999999
 -2.2759085157224952 53.9215248340406461 11.0899999999999999
 40.0910038538808635 24.1596442438234114 11.0899999999999999
 33.0882084208885843 31.5125794484653241 11.0899999999999999
 26.0854129878962766 38.8655146531072333 11.0899999999999999
 19.0826175549039760 46.2184498577491354 11.0899999999999999
 12.0798221219116897 53.5713850623910375 11.0899999999999999
 25.3851334445970345 10.1540533778388422 11.0899999999999999
 -3.3263278306713446 10.8543329211380541 11.0899999999999999
 40.4411436255304721 38.5153748814576176 11.0899999999999999
 33.4383481925381716 45.8683100860995268 11.0899999999999999
 26.4355527595458959 53.2212452907414146 11.0899999999999999
 19.4327573265535918 60.5741804953833167 11.0899999999999999
 -9.9789834920140077 32.5629987634141713 11.0899999999999999
 33.7884879641877944 60.2240407237337294 11.0899999999999999
 26.7856925311955045 67.5769759283756173 11.0899999999999999
 47.2688691726979613 23.9845743579985999 11.0899999999999999
  3.8515374881457589 10.6792630353132463 11.0899999999999999
 -3.1512579448465345 18.0321982399551572 11.0899999999999999
 -10.1540533778388262 25.3851334445970664 11.0899999999999999
 11.2044726927876628 17.6820584683055380 11.0899999999999999
  4.2016772597953658 25.0349936729474507 11.0899999999999999
 -2.8011181731969277 32.3879288775893599 11.0899999999999999
 -9.8039136061892158 39.7408640822312691 11.0899999999999999
 -16.8067090391815128 47.0937992868731783 11.0899999999999999
 25.5602033304218601 17.3319186966559258 11.0899999999999999
 18.5574078974295738 24.6848539012978350 11.0899999999999999
 11.5546124644372767 32.0377891059397513 11.0899999999999999
  4.5518170314449780 39.3907243105816463 11.0899999999999999
 -2.4509784015473119 46.7436595152235626 11.0899999999999999
 -9.4537738345396001 54.0965947198654575 11.0899999999999999
 32.9131385350637586 24.3347141296482121 11.0899999999999999
 25.9103431020714723 31.6876493342901284 11.0899999999999999
 18.9075476690791788 39.0405845389320234 11.0899999999999999
 11.9047522360868836 46.3935197435739468 11.0899999999999999
  4.9019568030945955 53.7464549482158418 11.0899999999999999
 18.2072681257799474 10.3291232636636394 11.0899999999999999
 40.2660737397056749 31.3375095626405127 11.0899999999999999
 33.2632783067133744 38.6904447672824148 11.0899999999999999
 26.2604828737210880 46.0433799719243240 11.0899999999999999
 19.2576874407287981 53.3963151765662332 11.0899999999999999
 12.2548920077365047 60.7492503812081353 11.0899999999999999
 33.6134180783629972 53.0461754049166103 11.0899999999999999
 26.6106226453707002 60.3991106095585408 11.0899999999999999
 39.9159339680560450 16.9817789250063207 11.0899999999999999
  0.1750698858248056  7.1778653188171004 11.0899999999999999
  7.5280050904667117 14.1806607518093948 11.0899999999999999
  0.5252096574744183 21.5335959564513040 11.0899999999999999
 -6.4775857755178725 28.8865311610932025 11.0899999999999999
 14.8809402951086138 21.1834561848016847 11.0899999999999999
  7.8781448621163186 28.5363913894435939 11.0899999999999999
  0.8753494291240358 35.8893265940854960 11.0899999999999999
 -6.1274460038682648 43.2422617987274123 11.0899999999999999
 -13.1302414368605547 50.5951970033693215 11.0899999999999999
 29.2366709327428183 20.8333164131520761 11.0899999999999999
 22.2338754997505248 28.1862516177939781 11.0899999999999999
 15.2310800667582242 35.5391868224358873 11.0899999999999999
  8.2282846337659414 42.8921220270777894 11.0899999999999999
  1.2254892007736409 50.2450572317197057 11.0899999999999999
 14.5308005234589981  6.8277255471674900 11.0899999999999999
 36.5896061373847132 27.8361118461443624 11.0899999999999999
 29.5868107043924198 35.1890470507862716 11.0899999999999999
 22.5840152714001299 42.5419822554281879 11.0899999999999999
 15.5812198384078275 49.8949174600700900 11.0899999999999999
  8.5784244054155465 57.2478526647120063 11.0899999999999999
 21.8837357281008948 13.8305209801597861 11.0899999999999999
 43.9425413420266224 34.8389072791366559 11.0899999999999999
 36.9397459090343290 42.1918424837785722 11.0899999999999999
 29.9369504760420355 49.5447776884204885 11.0899999999999999
 22.9341550430497527 56.8977128930623905 11.0899999999999999
 15.9313596100574486 64.2506480977042997 11.0899999999999999
 -13.4803812085101615 36.2394663657351259 11.0899999999999999
 30.2870902476916584 63.9005083260546769 11.0899999999999999
 43.5924015703769996 20.4831766415024603 11.0899999999999999
  0.0875349429124028  3.5889326594085502 14.6800000000000033
  7.4404701475543069 10.5917280924008423 14.6800000000000033
  0.4376747145620179 17.9446632970427480 14.6800000000000033
 -6.5651207184302773 25.2975985016846607 14.6800000000000033
 14.7934053521962099 17.5945235253931358 14.6800000000000033
  7.7906099192039138 24.9474587300350450 14.6800000000000033
  0.7878144862116265 32.3003939346769471 14.6800000000000033
 -6.2149809467806634 39.6533291393188563 14.6800000000000033
 -13.2177763797729639 47.0062643439607726 14.6800000000000033
 29.1491359898304125 17.2443837537435201 14.6800000000000033
 22.1463405568381226 24.5973189583854257 14.6800000000000033
 15.1435451238458292 31.9502541630273384 14.6800000000000033
  8.1407496908535339 39.3031893676692476 14.6800000000000033
  1.1379542578612352 46.6561245723111639 14.6800000000000033
 -5.8648411751310565 54.0090597769530589 14.6800000000000033
 36.5020711944723075 24.2471791867358064 14.6800000000000033
 29.4992757614800212 31.6001143913777263 14.6800000000000033
 22.4964803284877206 38.9530495960196390 14.6800000000000033
 15.4936848954954360 46.3059848006615482 14.6800000000000033
  8.4908894625031479 53.6589200053034503 14.6800000000000033
 21.7962007851884891 10.2415883207512408 14.6800000000000033
 43.8550063991142167 31.2499746197281070 14.6800000000000033
 36.8522109661219304 38.6029098243700162 14.6800000000000033
 29.8494155331296440 45.9558450290119396 14.6800000000000033
 22.8466201001373435 53.3087802336538346 14.6800000000000033
 15.8438246671450464 60.6617154382957509 14.6800000000000033
 37.2023507377715461 52.9586404620042117 14.6800000000000033
 30.1995553047792527 60.3115756666461351 14.6800000000000033
 23.1967598717869521 67.6645108712880301 14.6800000000000033
  0.2626048287372091 10.7667979782256520 14.6800000000000033
  7.6155400333791121 17.7695934112179437 14.6800000000000033
  0.6127446003868240 25.1225286158598529 14.6800000000000033
 -6.3900508326054739 32.4754638205017656 14.6800000000000033
 14.9684752380210249 24.7723888442102407 14.6800000000000033
  7.9656798050287243 32.1253240488521499 14.6800000000000033
  0.9628843720364291 39.4782592534940591 14.6800000000000033
 -6.0399110609558626 46.8311944581359612 14.6800000000000033
  7.2654002617294902  3.4138627735837490 14.6800000000000033
 29.3242058756552240 24.4222490725606285 14.6800000000000033
 22.3214104426629305 31.7751842772025341 14.6800000000000033
 15.3186150096706371 39.1281194818444433 14.6800000000000033
  8.3158195766783400 46.4810546864863454 14.6800000000000033
  1.3130241436860466 53.8339898911282475 14.6800000000000033
 14.6183354663713967 10.4166582065760380 14.6800000000000033
 36.6771410802971261 31.4250445055529113 14.6800000000000033
 29.6743456473048326 38.7779797101948276 14.6800000000000033
 22.6715502143125356 46.1309149148367368 14.6800000000000033
 15.6687547813202492 53.4838501194786460 14.6800000000000033
  8.6659593483279522 60.8367853241205410 14.6800000000000033
 21.9712706710133077 17.4194536395683386 14.6800000000000033
 -6.7401906042550861 18.1197331828675665 14.6800000000000033
 37.0272808519467418 45.7807751431871210 14.6800000000000033
 30.0244854189544270 53.1337103478290231 14.6800000000000033
 23.0216899859621513 60.4866455524709252 14.6800000000000033
 36.3270013086474890 17.0693138679187193 14.6800000000000033
 -13.3928462655977576 39.8283990251436677 14.6800000000000033
 30.3746251906040534 67.4894409854632471 14.6800000000000033
 43.6799365132893911 24.0721093009110021 14.6800000000000033
 47.3564041156103741 27.5735070174071524  8.4399999999999995
  3.9390724310581611 14.2681956947217987  8.4399999999999995
 -3.0637230019341324 21.6211308993637061  8.4399999999999995
 -10.0665184349264258 28.9740661040056224  8.4399999999999995
 11.2920076357000703 21.2709911277140904  8.4399999999999995
  4.2892122027077733 28.6239263323560031  8.4399999999999995
 -2.7135832302845273 35.9768615369979088  8.4399999999999995
 -9.7163786632768137 43.3297967416398109  8.4399999999999995
 -16.7191740962691178 50.6827319462817272  8.4399999999999995
 25.6477382733342694 20.9208513560644747  8.4399999999999995
 18.6449428403419759 28.2737865607063874  8.4399999999999995
 11.6421474073496842 35.6267217653482930  8.4399999999999995
  4.6393519743573854 42.9796569699901880  8.4399999999999995
 -2.3634434586349027 50.3325921746321114  8.4399999999999995
 10.9418678640504474  6.9152604900798877  8.4399999999999995
 33.0006734779761643 27.9236467890567717  8.4399999999999995
 25.9978780449838816 35.2765819936986844  8.4399999999999995
 18.9950826119915810 42.6295171983405794  8.4399999999999995
 11.9922871789992929 49.9824524029825028  8.4399999999999995
  4.9894917460069976 57.3353876076243978  8.4399999999999995
 18.2948030686923460 13.9180559230721990  8.4399999999999995
 40.3536086826180878 34.9264422220490687  8.4399999999999995
 33.3508132496257872 42.2793774266909637  8.4399999999999995
 26.3480178166334902 49.6323126313328871  8.4399999999999995
 19.3452223836411967 56.9852478359747892  8.4399999999999995
 32.6505337063265344 13.5679161514225672  8.4399999999999995
 33.7009530212753958 56.6351080643251663  8.4399999999999995
 26.6981575882831059 63.9880432689670684  8.4399999999999995
 40.0034689109684365 20.5707115844148731  8.4399999999999995
  3.7640025452333559  7.0903303759046974  8.4399999999999995
 11.1169377498752588 14.0931258088969891  8.4399999999999995
  4.1141423168829707 21.4460610135388947  8.4399999999999995
 -2.8886531161093281 28.7989962181808110  8.4399999999999995
 18.4698729545171645 21.0959212418892861  8.4399999999999995
 11.4670775215248693 28.4488564465311917  8.4399999999999995
  4.4642820885325740 35.8017916511731045  8.4399999999999995
 -2.5385133444597177 43.1547268558150137  8.4399999999999995
 -9.5413087774520182 50.5076620604569229  8.4399999999999995
 32.8256035921513671 20.7457814702396632  8.4399999999999995
 25.8228081591590666 28.0987166748815689  8.4399999999999995
 18.8200127261667802 35.4516518795234816  8.4399999999999995
 11.8172172931744850 42.8045870841653908  8.4399999999999995
  4.8144218601821969 50.1575222888073071  8.4399999999999995
 -2.1883735728101037 57.5104574934492092  8.4399999999999995
 40.1785387967932692 27.7485769032319567  8.4399999999999995
 33.1757433638009687 35.1015121078738730  8.4399999999999995
 26.1729479308086752 42.4544473125157680  8.4399999999999995
 19.1701524978163853 49.8073825171576843  8.4399999999999995
 12.1673570648241025 57.1603177217995722  8.4399999999999995
 25.4726683875094473 13.7429860372473911  8.4399999999999995
 -3.2387928877589340 14.4432655805466066  8.4399999999999995
 40.5286785684428779 42.1043075408661736  8.4399999999999995
 33.5258831354505915 49.4572427455080827  8.4399999999999995
 26.5230877024582981 56.8101779501499777  8.4399999999999995
 19.5202922694659975 64.1631131547919011  8.4399999999999995
 -9.8914485491016269 36.1519314228227131  8.4399999999999995
 -16.8942439820939079 43.5048666274646294  8.4399999999999995
 47.1813342297855343 20.3956416985900475  8.4399999999999995
 47.3564041156103741 27.5735070174071524 13.7400000000000020
  3.9390724310581611 14.2681956947217987 13.7400000000000020
 -3.0637230019341324 21.6211308993637061 13.7400000000000020
 -10.0665184349264258 28.9740661040056224 13.7400000000000020
 11.2920076357000703 21.2709911277140904 13.7400000000000020
  4.2892122027077733 28.6239263323560031 13.7400000000000020
 -2.7135832302845273 35.9768615369979088 13.7400000000000020
 -9.7163786632768137 43.3297967416398109 13.7400000000000020
 -16.7191740962691178 50.6827319462817272 13.7400000000000020
 25.6477382733342694 20.9208513560644747 13.7400000000000020
 18.6449428403419759 28.2737865607063874 13.7400000000000020
 11.6421474073496842 35.6267217653482930 13.7400000000000020
  4.6393519743573854 42.9796569699901880 13.7400000000000020
 -2.3634434586349027 50.3325921746321114 13.7400000000000020
 10.9418678640504474  6.9152604900798877 13.7400000000000020
 33.0006734779761643 27.9236467890567717 13.7400000000000020
 25.9978780449838816 35.2765819936986844 13.7400000000000020
 18.9950826119915810 42.6295171983405794 13.7400000000000020
 11.9922871789992929 49.9824524029825028 13.7400000000000020
  4.9894917460069976 57.3353876076243978 13.7400000000000020
 18.2948030686923460 13.9180559230721990 13.7400000000000020
 40.3536086826180878 34.9264422220490687 13.7400000000000020
 33.3508132496257872 42.2793774266909637 13.7400000000000020
 26.3480178166334902 49.6323126313328871 13.7400000000000020
 19.3452223836411967 56.9852478359747892 13.7400000000000020
 32.6505337063265344 13.5679161514225672 13.7400000000000020
 33.7009530212753958 56.6351080643251663 13.7400000000000020
 26.6981575882831059 63.9880432689670684 13.7400000000000020
 40.0034689109684365 20.5707115844148731 13.7400000000000020
  3.7640025452333559  7.0903303759046974 13.7400000000000020
 11.1169377498752588 14.0931258088969891 13.7400000000000020
  4.1141423168829707 21.4460610135388947 13.7400000000000020
 -2.8886531161093281 28.7989962181808110 13.7400000000000020
 18.4698729545171645 21.0959212418892861 13.7400000000000020
 11.4670775215248693 28.4488564465311917 13.7400000000000020
  4.4642820885325740 35.8017916511731045 13.7400000000000020
 -2.5385133444597177 43.1547268558150137 13.7400000000000020
 -9.5413087774520182 50.5076620604569229 13.7400000000000020
 32.8256035921513671 20.7457814702396632 13.7400000000000020
 25.8228081591590666 28.0987166748815689 13.7400000000000020
 18.8200127261667802 35.4516518795234816 13.7400000000000020
 11.8172172931744850 42.8045870841653908 13.7400000000000020
  4.8144218601821969 50.1575222888073071 13.7400000000000020
 -2.1883735728101037 57.5104574934492092 13.7400000000000020
 40.1785387967932692 27.7485769032319567 13.7400000000000020
 33.1757433638009687 35.1015121078738730 13.7400000000000020
 26.1729479308086752 42.4544473125157680 13.7400000000000020
 19.1701524978163853 49.8073825171576843 13.7400000000000020
 12.1673570648241025 57.1603177217995722 13.7400000000000020
 25.4726683875094473 13.7429860372473911 13.7400000000000020
 -3.2387928877589340 14.4432655805466066 13.7400000000000020
 40.5286785684428779 42.1043075408661736 13.7400000000000020
 33.5258831354505915 49.4572427455080827 13.7400000000000020
 26.5230877024582981 56.8101779501499777 13.7400000000000020
 19.5202922694659975 64.1631131547919011 13.7400000000000020
 -9.8914485491016269 36.1519314228227131 13.7400000000000020
 -16.8942439820939079 43.5048666274646294 13.7400000000000020
 47.1813342297855343 20.3956416985900475 13.7400000000000020
