Pb  I  N  C  N  H  N  C  N  H  N  C  N  H  N  C  N  H Pb  I  N  C  N  H  N  C  N  H  N  C  N  H  N  C  N  H 
 1.0000000000000000
    50.7702668891941116   20.3081067556776453    0.0000000000000000
   -20.3081067556776453   50.7702668891941116    0.0000000000000000
     0.0000000000000000    0.0000000000000000   48.0151803301504927
 Pb  I   N   C   N   H   N   C   N   H   N   C   N   H   N   C   N   H   Pb  I   N   C   N   H   N   C   N   H   N   C   N   H   N   C   N   H  
  58 232  29 145  29 464  29 145  29 464  29 145  29 464  29 145  29 464  58 232  29 145  29 464  29 145  29 464  29 145  29 464  29 145  29 464
Cartesian
 -7.6155400333791174 33.0006734779761857 29.5075901650752428
 -7.6155400333791210 43.1547268558150137 29.5075901650752428
 -7.6155400333791192 53.3087802336538417 29.5075901650752428
  2.5385133444597052  2.5385133444597052 29.5075901650752428
  2.5385133444597061 12.6925667222985279 29.5075901650752428
  2.5385133444597088 22.8466201001373506 29.5075901650752428
  2.5385133444597034 33.0006734779761786 29.5075901650752428
  2.5385133444597052 43.1547268558150137 29.5075901650752428
  2.5385133444597088 53.3087802336538417 29.5075901650752428
 12.6925667222985297 12.6925667222985297 29.5075901650752428
 12.6925667222985368 22.8466201001373541 29.5075901650752428
 12.6925667222985261 33.0006734779761786 29.5075901650752428
 12.6925667222985243 43.1547268558150137 29.5075901650752428
 12.6925667222985261 53.3087802336538275 29.5075901650752428
 12.6925667222985297 63.4628336114926555 29.5075901650752428
 22.8466201001373541 12.6925667222985297 29.5075901650752428
 22.8466201001373506 22.8466201001373577 29.5075901650752428
 22.8466201001373577 33.0006734779761857 29.5075901650752428
 22.8466201001373577 43.1547268558149995 29.5075901650752428
 22.8466201001373435 53.3087802336538417 29.5075901650752428
 22.8466201001373470 63.4628336114926697 29.5075901650752428
 33.0006734779761786 22.8466201001373577 29.5075901650752428
 33.0006734779761715 33.0006734779761857 29.5075901650752428
 33.0006734779761643 43.1547268558150137 29.5075901650752428
 33.0006734779761715 53.3087802336538346 29.5075901650752428
 33.0006734779761643 63.4628336114926555 29.5075901650752428
 43.1547268558149995 22.8466201001373506 29.5075901650752428
 43.1547268558149923 33.0006734779761786 29.5075901650752428
 -7.6155400333791166 22.8466201001373612 29.5075901650752428
 -2.5385133444597034 38.0777001668956032 29.5075901650752428
 -2.5385133444597070 48.2317535447344241 29.5075901650752428
 17.7695934112179437  7.6155400333791299 29.5075901650752428
  7.6155400333791174  7.6155400333791183 29.5075901650752428
  7.6155400333791139 17.7695934112179437 29.5075901650752428
  7.6155400333791174 27.9236467890567681 29.5075901650752428
  7.6155400333791192 38.0777001668955961 29.5075901650752428
  7.6155400333791157 48.2317535447344170 29.5075901650752428
  7.6155400333791192 58.3858069225732521 29.5075901650752428
 17.7695934112179366 17.7695934112179401 29.5075901650752428
 17.7695934112179401 27.9236467890567646 29.5075901650752428
 17.7695934112179401 38.0777001668955890 29.5075901650752428
 17.7695934112179401 48.2317535447344241 29.5075901650752428
 17.7695934112179330 58.3858069225732450 29.5075901650752428
 38.0777001668955890 17.7695934112179401 29.5075901650752428
 27.9236467890567610 17.7695934112179401 29.5075901650752428
 27.9236467890567681 27.9236467890567681 29.5075901650752428
 27.9236467890567646 38.0777001668955890 29.5075901650752428
 27.9236467890567539 48.2317535447344170 29.5075901650752428
 27.9236467890567646 58.3858069225732379 29.5075901650752428
 27.9236467890567646 68.5398603004120588 29.5075901650752428
 38.0777001668955890 27.9236467890567610 29.5075901650752428
 38.0777001668955890 38.0777001668955890 29.5075901650752428
 38.0777001668955748 48.2317535447344170 29.5075901650752428
 -12.6925667222985261 38.0777001668955890 29.5075901650752428
 -12.6925667222985368 48.2317535447344099 29.5075901650752428
 -2.5385133444596955  7.6155400333791201 29.5075901650752428
 -2.5385133444597026 17.7695934112179437 29.5075901650752428
 -2.5385133444596990 27.9236467890567788 29.5075901650752428
 -7.6155400333791174 33.0006734779761857 25.9175901650752429
 -7.6155400333791210 43.1547268558150137 25.9175901650752429
 -7.6155400333791192 53.3087802336538417 25.9175901650752429
  2.5385133444597052  2.5385133444597052 25.9175901650752429
  2.5385133444597061 12.6925667222985279 25.9175901650752429
  2.5385133444597088 22.8466201001373506 25.9175901650752429
  2.5385133444597034 33.0006734779761786 25.9175901650752429
  2.5385133444597052 43.1547268558150137 25.9175901650752429
  2.5385133444597088 53.3087802336538417 25.9175901650752429
 12.6925667222985297 12.6925667222985297 25.9175901650752429
 12.6925667222985368 22.8466201001373541 25.9175901650752429
 12.6925667222985261 33.0006734779761786 25.9175901650752429
 12.6925667222985243 43.1547268558150137 25.9175901650752429
 12.6925667222985261 53.3087802336538275 25.9175901650752429
 12.6925667222985297 63.4628336114926555 25.9175901650752429
 22.8466201001373541 12.6925667222985297 25.9175901650752429
 22.8466201001373506 22.8466201001373577 25.9175901650752429
 22.8466201001373577 33.0006734779761857 25.9175901650752429
 22.8466201001373577 43.1547268558149995 25.9175901650752429
 22.8466201001373435 53.3087802336538417 25.9175901650752429
 22.8466201001373470 63.4628336114926697 25.9175901650752429
 33.0006734779761786 22.8466201001373577 25.9175901650752429
 33.0006734779761715 33.0006734779761857 25.9175901650752429
 33.0006734779761643 43.1547268558150137 25.9175901650752429
 33.0006734779761715 53.3087802336538346 25.9175901650752429
 33.0006734779761643 63.4628336114926555 25.9175901650752429
 43.1547268558149995 22.8466201001373506 25.9175901650752429
 43.1547268558149923 33.0006734779761786 25.9175901650752429
 -7.6155400333791166 22.8466201001373612 25.9175901650752429
 -2.5385133444597034 38.0777001668956032 25.9175901650752429
 -2.5385133444597070 48.2317535447344241 25.9175901650752429
 17.7695934112179437  7.6155400333791299 25.9175901650752429
  7.6155400333791174  7.6155400333791183 25.9175901650752429
  7.6155400333791139 17.7695934112179437 25.9175901650752429
  7.6155400333791174 27.9236467890567681 25.9175901650752429
  7.6155400333791192 38.0777001668955961 25.9175901650752429
  7.6155400333791157 48.2317535447344170 25.9175901650752429
  7.6155400333791192 58.3858069225732521 25.9175901650752429
 17.7695934112179366 17.7695934112179401 25.9175901650752429
 17.7695934112179401 27.9236467890567646 25.9175901650752429
 17.7695934112179401 38.0777001668955890 25.9175901650752429
 17.7695934112179401 48.2317535447344241 25.9175901650752429
 17.7695934112179330 58.3858069225732450 25.9175901650752429
 38.0777001668955890 17.7695934112179401 25.9175901650752429
 27.9236467890567610 17.7695934112179401 25.9175901650752429
 27.9236467890567681 27.9236467890567681 25.9175901650752429
 27.9236467890567646 38.0777001668955890 25.9175901650752429
 27.9236467890567539 48.2317535447344170 25.9175901650752429
 27.9236467890567646 58.3858069225732379 25.9175901650752429
 27.9236467890567646 68.5398603004120588 25.9175901650752429
 38.0777001668955890 27.9236467890567610 25.9175901650752429
 38.0777001668955890 38.0777001668955890 25.9175901650752429
 38.0777001668955748 48.2317535447344170 25.9175901650752429
 -12.6925667222985261 38.0777001668955890 25.9175901650752429
 -12.6925667222985368 48.2317535447344099 25.9175901650752429
 -2.5385133444596955  7.6155400333791201 25.9175901650752429
 -2.5385133444597026 17.7695934112179437 25.9175901650752429
 -2.5385133444596990 27.9236467890567788 25.9175901650752429
 -10.1540533778388244 30.4621601335164840 29.5075901650752428
 -10.1540533778388191 40.6162135113552907 29.5075901650752428
 -10.1540533778388191 50.7702668891941329 29.5075901650752428
  0.0000000000000000  0.0000000000000000 29.5075901650752428
  0.0000000000000004 10.1540533778388262 29.5075901650752428
  0.0000000000000009 20.3081067556776524 29.5075901650752428
  0.0000000000000000 30.4621601335164733 29.5075901650752428
  0.0000000000000018 40.6162135113553049 29.5075901650752428
  0.0000000000000000 50.7702668891941258 29.5075901650752428
 10.1540533778388244 10.1540533778388244 29.5075901650752428
 10.1540533778388244 20.3081067556776453 29.5075901650752428
 10.1540533778388209 30.4621601335164733 29.5075901650752428
 10.1540533778388227 40.6162135113552907 29.5075901650752428
 10.1540533778388244 50.7702668891941116 29.5075901650752428
 10.1540533778388173 60.9243202670329538 29.5075901650752428
 20.3081067556776489 10.1540533778388209 29.5075901650752428
 20.3081067556776489 20.3081067556776489 29.5075901650752428
 20.3081067556776489 30.4621601335164733 29.5075901650752428
 20.3081067556776489 40.6162135113552907 29.5075901650752428
 20.3081067556776453 50.7702668891941187 29.5075901650752428
 20.3081067556776418 60.9243202670329467 29.5075901650752428
 30.4621601335164733 20.3081067556776453 29.5075901650752428
 30.4621601335164698 30.4621601335164733 29.5075901650752428
 30.4621601335164662 40.6162135113552907 29.5075901650752428
 30.4621601335164698 50.7702668891941116 29.5075901650752428
 30.4621601335164591 60.9243202670329680 29.5075901650752428
 40.6162135113552978 20.3081067556776418 29.5075901650752428
 40.6162135113552907 30.4621601335164733 29.5075901650752428
 40.6162135113552978 40.6162135113552978 29.5075901650752428
 -5.0770266889194096 30.4621601335164733 29.5075901650752428
 -5.0770266889194087 40.6162135113552907 29.5075901650752428
 -5.0770266889194122 50.7702668891941258 29.5075901650752428
 -15.2310800667582349 50.7702668891941116 29.5075901650752428
  5.0770266889194104 10.1540533778388209 29.5075901650752428
  5.0770266889194113 20.3081067556776453 29.5075901650752428
  5.0770266889194087 30.4621601335164769 29.5075901650752428
  5.0770266889194122 40.6162135113552907 29.5075901650752428
  5.0770266889194140 50.7702668891941187 29.5075901650752428
 15.2310800667582349 10.1540533778388244 29.5075901650752428
 15.2310800667582420 20.3081067556776453 29.5075901650752428
 15.2310800667582296 30.4621601335164840 29.5075901650752428
 15.2310800667582296 40.6162135113553049 29.5075901650752428
 15.2310800667582313 50.7702668891941116 29.5075901650752428
 15.2310800667582278 60.9243202670329609 29.5075901650752428
 25.3851334445970558 10.1540533778388227 29.5075901650752428
 25.3851334445970629 20.3081067556776560 29.5075901650752428
 25.3851334445970593 30.4621601335164733 29.5075901650752428
 25.3851334445970664 40.6162135113552907 29.5075901650752428
 25.3851334445970629 50.7702668891941187 29.5075901650752428
 25.3851334445970487 60.9243202670329467 29.5075901650752428
 35.5391868224358873 20.3081067556776453 29.5075901650752428
 35.5391868224358802 30.4621601335164804 29.5075901650752428
 35.5391868224358802 40.6162135113553049 29.5075901650752428
 35.5391868224358873 50.7702668891941116 29.5075901650752428
 -15.2310800667582313 40.6162135113553120 29.5075901650752428
 45.6932402002747082 20.3081067556776524 29.5075901650752428
 45.6932402002747011 30.4621601335164698 29.5075901650752428
 -5.0770266889194051 20.3081067556776595 29.5075901650752428
 -10.1540533778388227 35.5391868224358802 29.5075901650752428
 -10.1540533778388227 45.6932402002747153 29.5075901650752428
 10.1540533778388227  5.0770266889194202 29.5075901650752428
  0.0000000000000002  5.0770266889194131 29.5075901650752428
  0.0000000000000000 15.2310800667582367 29.5075901650752428
  0.0000000000000000 25.3851334445970629 29.5075901650752428
  0.0000000000000000 35.5391868224358802 29.5075901650752428
 -0.0000000000000018 45.6932402002747082 29.5075901650752428
  0.0000000000000036 55.8472935781135433 29.5075901650752428
 10.1540533778388244 15.2310800667582367 29.5075901650752428
 10.1540533778388227 25.3851334445970593 29.5075901650752428
 10.1540533778388244 35.5391868224358802 29.5075901650752428
 10.1540533778388227 45.6932402002747153 29.5075901650752428
 10.1540533778388138 55.8472935781135433 29.5075901650752428
 30.4621601335164698 15.2310800667582456 29.5075901650752428
 20.3081067556776453 15.2310800667582367 29.5075901650752428
 20.3081067556776489 25.3851334445970593 29.5075901650752428
 20.3081067556776489 35.5391868224358802 29.5075901650752428
 20.3081067556776524 45.6932402002747082 29.5075901650752428
 20.3081067556776418 55.8472935781135362 29.5075901650752428
 20.3081067556776347 66.0013469559523713 29.5075901650752428
 30.4621601335164698 25.3851334445970558 29.5075901650752428
 30.4621601335164698 35.5391868224358802 29.5075901650752428
 30.4621601335164627 45.6932402002747153 29.5075901650752428
 30.4621601335164698 55.8472935781135220 29.5075901650752428
 30.4621601335164520 66.0013469559523571 29.5075901650752428
 40.6162135113552978 25.3851334445970522 29.5075901650752428
 40.6162135113552836 35.5391868224358802 29.5075901650752428
 -10.1540533778388244 25.3851334445970664 29.5075901650752428
 -5.0770266889194096 35.5391868224358873 29.5075901650752428
 -5.0770266889194122 45.6932402002747082 29.5075901650752428
 -5.0770266889194104 55.8472935781135433 29.5075901650752428
  5.0770266889194104  5.0770266889194104 29.5075901650752428
  5.0770266889194104 15.2310800667582367 29.5075901650752428
  5.0770266889194122 25.3851334445970558 29.5075901650752428
  5.0770266889194122 35.5391868224358944 29.5075901650752428
  5.0770266889194176 45.6932402002747011 29.5075901650752428
  5.0770266889194140 55.8472935781135433 29.5075901650752428
 15.2310800667582349 15.2310800667582367 29.5075901650752428
 15.2310800667582384 25.3851334445970593 29.5075901650752428
 15.2310800667582278 35.5391868224358873 29.5075901650752428
 15.2310800667582384 45.6932402002747082 29.5075901650752428
 15.2310800667582349 55.8472935781135362 29.5075901650752428
 35.5391868224358802 15.2310800667582562 29.5075901650752428
 25.3851334445970522 15.2310800667582349 29.5075901650752428
 25.3851334445970593 25.3851334445970593 29.5075901650752428
 25.3851334445970558 35.5391868224358944 29.5075901650752428
 25.3851334445970735 45.6932402002747082 29.5075901650752428
 25.3851334445970558 55.8472935781135433 29.5075901650752428
 25.3851334445970522 66.0013469559523571 29.5075901650752428
 35.5391868224358873 25.3851334445970558 29.5075901650752428
 35.5391868224358731 35.5391868224358802 29.5075901650752428
 35.5391868224358802 45.6932402002747011 29.5075901650752428
 35.5391868224358802 55.8472935781135291 29.5075901650752428
 -15.2310800667582296 45.6932402002747224 29.5075901650752428
 45.6932402002747082 25.3851334445970593 29.5075901650752428
 -5.0770266889194149 15.2310800667582349 29.5075901650752428
 -5.0770266889194113 25.3851334445970700 29.5075901650752428
 -7.6155400333791174 33.0006734779761857 33.0975901650752462
 -7.6155400333791210 43.1547268558150137 33.0975901650752462
 -7.6155400333791192 53.3087802336538417 33.0975901650752462
  2.5385133444597052  2.5385133444597052 33.0975901650752462
  2.5385133444597061 12.6925667222985279 33.0975901650752462
  2.5385133444597088 22.8466201001373506 33.0975901650752462
  2.5385133444597034 33.0006734779761786 33.0975901650752462
  2.5385133444597052 43.1547268558150137 33.0975901650752462
  2.5385133444597088 53.3087802336538417 33.0975901650752462
 12.6925667222985297 12.6925667222985297 33.0975901650752462
 12.6925667222985368 22.8466201001373541 33.0975901650752462
 12.6925667222985261 33.0006734779761786 33.0975901650752462
 12.6925667222985243 43.1547268558150137 33.0975901650752462
 12.6925667222985261 53.3087802336538275 33.0975901650752462
 12.6925667222985297 63.4628336114926555 33.0975901650752462
 22.8466201001373541 12.6925667222985297 33.0975901650752462
 22.8466201001373506 22.8466201001373577 33.0975901650752462
 22.8466201001373577 33.0006734779761857 33.0975901650752462
 22.8466201001373577 43.1547268558149995 33.0975901650752462
 22.8466201001373435 53.3087802336538417 33.0975901650752462
 22.8466201001373470 63.4628336114926697 33.0975901650752462
 33.0006734779761786 22.8466201001373577 33.0975901650752462
 33.0006734779761715 33.0006734779761857 33.0975901650752462
 33.0006734779761643 43.1547268558150137 33.0975901650752462
 33.0006734779761715 53.3087802336538346 33.0975901650752462
 33.0006734779761643 63.4628336114926555 33.0975901650752462
 43.1547268558149995 22.8466201001373506 33.0975901650752462
 43.1547268558149923 33.0006734779761786 33.0975901650752462
 -7.6155400333791166 22.8466201001373612 33.0975901650752462
 -2.5385133444597034 38.0777001668956032 33.0975901650752462
 -2.5385133444597070 48.2317535447344241 33.0975901650752462
 17.7695934112179437  7.6155400333791299 33.0975901650752462
  7.6155400333791174  7.6155400333791183 33.0975901650752462
  7.6155400333791139 17.7695934112179437 33.0975901650752462
  7.6155400333791174 27.9236467890567681 33.0975901650752462
  7.6155400333791192 38.0777001668955961 33.0975901650752462
  7.6155400333791157 48.2317535447344170 33.0975901650752462
  7.6155400333791192 58.3858069225732521 33.0975901650752462
 17.7695934112179366 17.7695934112179401 33.0975901650752462
 17.7695934112179401 27.9236467890567646 33.0975901650752462
 17.7695934112179401 38.0777001668955890 33.0975901650752462
 17.7695934112179401 48.2317535447344241 33.0975901650752462
 17.7695934112179330 58.3858069225732450 33.0975901650752462
 38.0777001668955890 17.7695934112179401 33.0975901650752462
 27.9236467890567610 17.7695934112179401 33.0975901650752462
 27.9236467890567681 27.9236467890567681 33.0975901650752462
 27.9236467890567646 38.0777001668955890 33.0975901650752462
 27.9236467890567539 48.2317535447344170 33.0975901650752462
 27.9236467890567646 58.3858069225732379 33.0975901650752462
 27.9236467890567646 68.5398603004120588 33.0975901650752462
 38.0777001668955890 27.9236467890567610 33.0975901650752462
 38.0777001668955890 38.0777001668955890 33.0975901650752462
 38.0777001668955748 48.2317535447344170 33.0975901650752462
 -12.6925667222985261 38.0777001668955890 33.0975901650752462
 -12.6925667222985368 48.2317535447344099 33.0975901650752462
 -2.5385133444596955  7.6155400333791201 33.0975901650752462
 -2.5385133444597026 17.7695934112179437 33.0975901650752462
 -2.5385133444596990 27.9236467890567788 33.0975901650752462
 -7.6074972534090817 37.1475393697908487 19.5035493961519037
 -7.6074972534090843 47.3015927476296838 19.5035493961519037
 12.7006095022685592  6.6853792362743993 19.5035493961519037
  2.5465561244297374  6.6853792362743780 19.5035493961519037
  2.5465561244297401 16.8394326141131998 19.5035493961519037
  2.5465561244297383 26.9934859919520278 19.5035493961519037
  2.5465561244297401 37.1475393697908558 19.5035493961519037
  2.5465561244297383 47.3015927476296838 19.5035493961519037
  2.5465561244297348 57.4556461254685047 19.5035493961519037
 12.7006095022685628 16.8394326141131998 19.5035493961519037
 12.7006095022685646 26.9934859919520207 19.5035493961519037
 12.7006095022685592 37.1475393697908487 19.5035493961519037
 12.7006095022685610 47.3015927476296696 19.5035493961519037
 12.7006095022685628 57.4556461254684905 19.5035493961519037
 33.0087162579461975 16.8394326141132140 19.5035493961519037
 22.8546628801073872 16.8394326141131998 19.5035493961519037
 22.8546628801073872 26.9934859919520278 19.5035493961519037
 22.8546628801073872 37.1475393697908487 19.5035493961519037
 22.8546628801073908 47.3015927476296767 19.5035493961519037
 22.8546628801073872 57.4556461254684976 19.5035493961519037
 22.8546628801073872 67.6096995033073256 19.5035493961519037
 33.0087162579461975 26.9934859919520207 19.5035493961519037
 33.0087162579462046 37.1475393697908487 19.5035493961519037
 33.0087162579461904 47.3015927476296696 19.5035493961519037
 33.0087162579461975 57.4556461254684976 19.5035493961519037
 -17.7615506312479106 47.3015927476296838 19.5035493961519037
 43.1627696357850326 26.9934859919520207 19.5035493961519037
 43.1627696357850184 37.1475393697908487 19.5035493961519037
 -7.6074972534090852 26.9934859919520349 19.5035493961519037
 -7.5793677630315415 38.5434239845020983 19.9450047113663516
 -7.5793677630315486 48.6974773623409192 19.9450047113663516
 12.7287389926461039  8.0812638509856374 19.9450047113663516
  2.5746856148072821  8.0812638509856267 19.9450047113663516
  2.5746856148072821 18.2353172288244494 19.9450047113663516
  2.5746856148072812 28.3893706066632703 19.9450047113663516
  2.5746856148072794 38.5434239845020983 19.9450047113663516
  2.5746856148072794 48.6974773623409334 19.9450047113663516
  2.5746856148072830 58.8515307401797543 19.9450047113663516
 12.7287389926461074 18.2353172288244494 19.9450047113663516
 12.7287389926461056 28.3893706066632703 19.9450047113663516
 12.7287389926461039 38.5434239845020983 19.9450047113663516
 12.7287389926460968 48.6974773623409192 19.9450047113663516
 12.7287389926461039 58.8515307401797543 19.9450047113663516
 33.0368457483237350 18.2353172288244636 19.9450047113663516
 22.8827923704849283 18.2353172288244494 19.9450047113663516
 22.8827923704849248 28.3893706066632774 19.9450047113663516
 22.8827923704849248 38.5434239845020983 19.9450047113663516
 22.8827923704849283 48.6974773623409334 19.9450047113663516
 22.8827923704849248 58.8515307401797543 19.9450047113663516
 43.1908991261625630 18.2353172288244494 19.9450047113663516
 33.0368457483237563 28.3893706066632703 19.9450047113663516
 33.0368457483237492 38.5434239845020983 19.9450047113663516
 33.0368457483237350 48.6974773623409192 19.9450047113663516
 33.0368457483237492 58.8515307401797401 19.9450047113663516
 -17.7334211408703624 48.6974773623409263 19.9450047113663516
 43.1908991261625772 28.3893706066632703 19.9450047113663516
 43.1908991261625701 38.5434239845020983 19.9450047113663516
 -7.5793677630315379 28.3893706066632809 19.9450047113663516
 -8.1946147663679607 38.7222955002905067 21.3430320128339801
 -8.1946147663679554 48.8763488781293418 21.3430320128339801
 12.1134919893096864  8.2601353667740476 21.3430320128339801
  1.9594386114708651  8.2601353667740334 21.3430320128339801
  1.9594386114708646 18.4141887446128578 21.3430320128339801
  1.9594386114708673 28.5682421224516787 21.3430320128339801
  1.9594386114708620 38.7222955002904996 21.3430320128339801
  1.9594386114708655 48.8763488781293347 21.3430320128339801
  1.9594386114708655 59.0304022559681769 21.3430320128339801
 12.1134919893096882 18.4141887446128578 21.3430320128339801
 12.1134919893096900 28.5682421224516787 21.3430320128339801
 12.1134919893096864 38.7222955002904996 21.3430320128339801
 12.1134919893096846 48.8763488781293276 21.3430320128339801
 12.1134919893096829 59.0304022559681627 21.3430320128339801
 32.4215987449873282 18.4141887446128720 21.3430320128339801
 22.2675453671485108 18.4141887446128578 21.3430320128339801
 22.2675453671485108 28.5682421224516858 21.3430320128339801
 22.2675453671485073 38.7222955002904996 21.3430320128339801
 22.2675453671485144 48.8763488781293347 21.3430320128339801
 22.2675453671485073 59.0304022559681485 21.3430320128339801
 42.5756521228261633 18.4141887446128685 21.3430320128339801
 32.4215987449873353 28.5682421224516787 21.3430320128339801
 32.4215987449873140 38.7222955002904996 21.3430320128339801
 32.4215987449873140 48.8763488781293347 21.3430320128339801
 32.4215987449873282 59.0304022559681485 21.3430320128339801
 -18.3486681442067834 48.8763488781293489 21.3430320128339801
 42.5756521228261562 28.5682421224516787 21.3430320128339801
 42.5756521228261562 38.7222955002904996 21.3430320128339801
 -8.1946147663679518 28.5682421224516929 21.3430320128339801
 -7.3392988056802739 38.0877023812812396 22.4491485172145246
 -7.3392988056802757 48.2417557591200605 22.4491485172145246
 12.9688079499973732  7.6255422477647699 22.4491485172145246
  2.8147545721585518  7.6255422477647601 22.4491485172145246
  2.8147545721585514 17.7795956256035836 22.4491485172145246
  2.8147545721585523 27.9336490034424116 22.4491485172145246
  2.8147545721585452 38.0877023812812396 22.4491485172145246
  2.8147545721585487 48.2417557591200676 22.4491485172145246
  2.8147545721585558 58.3958091369588743 22.4491485172145246
 12.9688079499973767 17.7795956256035836 22.4491485172145246
 12.9688079499973767 27.9336490034424116 22.4491485172145246
 12.9688079499973714 38.0877023812812325 22.4491485172145246
 12.9688079499973661 48.2417557591200605 22.4491485172145246
 12.9688079499973767 58.3958091369588743 22.4491485172145246
 33.2769147056750185 17.7795956256035836 22.4491485172145246
 23.1228613278362012 17.7795956256035836 22.4491485172145246
 23.1228613278361976 27.9336490034424116 22.4491485172145246
 23.1228613278362047 38.0877023812812325 22.4491485172145246
 23.1228613278361905 48.2417557591200676 22.4491485172145246
 23.1228613278362047 58.3958091369588814 22.4491485172145246
 43.4309680835138323 17.7795956256035836 22.4491485172145246
 33.2769147056750256 27.9336490034424116 22.4491485172145246
 33.2769147056750185 38.0877023812812325 22.4491485172145246
 33.2769147056750114 48.2417557591200676 22.4491485172145246
 33.2769147056750256 58.3958091369588672 22.4491485172145246
 -17.4933521835190930 48.2417557591200605 22.4491485172145246
 43.4309680835138323 27.9336490034424045 22.4491485172145246
 43.4309680835138323 38.0877023812812325 22.4491485172145246
 -7.3392988056802668 27.9336490034424152 22.4491485172145246
 -7.9120926479242373 38.4047779427236122 23.8357882634943898
 -7.9120926479242399 48.5588313205624331 23.8357882634943898
 12.3960141077534054  7.9426178092071478 23.8357882634943898
  2.2419607299145854  7.9426178092071309 23.8357882634943898
  2.2419607299145845 18.0966711870459562 23.8357882634943898
  2.2419607299145863 28.2507245648847771 23.8357882634943898
  2.2419607299145845 38.4047779427236051 23.8357882634943898
  2.2419607299145845 48.5588313205624402 23.8357882634943898
  2.2419607299145845 58.7128846984012611 23.8357882634943898
 12.3960141077534090 18.0966711870459562 23.8357882634943898
 12.3960141077534054 28.2507245648847771 23.8357882634943898
 12.3960141077534072 38.4047779427235980 23.8357882634943898
 12.3960141077534036 48.5588313205624189 23.8357882634943898
 12.3960141077534054 58.7128846984012540 23.8357882634943898
 32.7041208634310507 18.0966711870459704 23.8357882634943898
 22.5500674855922263 18.0966711870459491 23.8357882634943898
 22.5500674855922298 28.2507245648847842 23.8357882634943898
 22.5500674855922227 38.4047779427235980 23.8357882634943898
 22.5500674855922334 48.5588313205624260 23.8357882634943898
 22.5500674855922263 58.7128846984012398 23.8357882634943898
 42.8581742412698645 18.0966711870459775 23.8357882634943898
 32.7041208634310578 28.2507245648847771 23.8357882634943898
 32.7041208634310578 38.4047779427235980 23.8357882634943898
 32.7041208634310507 48.5588313205624189 23.8357882634943898
 32.7041208634310578 58.7128846984012540 23.8357882634943898
 -18.0661460257630608 48.5588313205624402 23.8357882634943898
 42.8581742412698645 28.2507245648847771 23.8357882634943898
 42.8581742412698716 38.4047779427236051 23.8357882634943898
 -7.9120926479242346 28.2507245648847878 23.8357882634943898
 -7.0659940993094086 37.7621497120463374 24.9429834756677664
 -7.0659940993094104 47.9162030898851725 24.9429834756677664
 13.2421126563682385  7.2999895785298818 24.9429834756677664
  3.0880592785294132  7.2999895785298721 24.9429834756677664
  3.0880592785294123 17.4540429563686992 24.9429834756677664
  3.0880592785294123 27.6080963342075236 24.9429834756677664
  3.0880592785294159 37.7621497120463374 24.9429834756677664
  3.0880592785294141 47.9162030898851654 24.9429834756677664
  3.0880592785294141 58.0702564677240005 24.9429834756677664
 13.2421126563682403 17.4540429563686956 24.9429834756677664
 13.2421126563682385 27.6080963342075236 24.9429834756677664
 13.2421126563682350 37.7621497120463374 24.9429834756677664
 13.2421126563682332 47.9162030898851583 24.9429834756677664
 13.2421126563682350 58.0702564677239934 24.9429834756677664
 33.5502194120458839 17.4540429563687134 24.9429834756677664
 23.3961660342070594 17.4540429563686956 24.9429834756677664
 23.3961660342070559 27.6080963342075236 24.9429834756677664
 23.3961660342070665 37.7621497120463374 24.9429834756677664
 23.3961660342070630 47.9162030898851654 24.9429834756677664
 23.3961660342070523 58.0702564677239792 24.9429834756677664
 23.3961660342070594 68.2243098455628143 24.9429834756677664
 33.5502194120458768 27.6080963342075165 24.9429834756677664
 33.5502194120458839 37.7621497120463374 24.9429834756677664
 33.5502194120458768 47.9162030898851725 24.9429834756677664
 33.5502194120458839 58.0702564677239792 24.9429834756677664
 -17.2200474771482348 47.9162030898851725 24.9429834756677664
 43.7042727898847119 27.6080963342075165 24.9429834756677664
 43.7042727898847048 37.7621497120463374 24.9429834756677664
 -7.0659940993093953 27.6080963342075307 24.9429834756677664
 -7.6142731407358291 38.0676796905802206 26.2639818234497540
 -7.6142731407358291 48.2217330684190415 26.2639818234497540
 12.6938336149418074  7.6055195570637748 26.2639818234497540
  2.5397802371029892  7.6055195570637570 26.2639818234497540
  2.5397802371029892 17.7595729349025788 26.2639818234497540
  2.5397802371029883 27.9136263127414068 26.2639818234497540
  2.5397802371029972 38.0676796905802206 26.2639818234497540
  2.5397802371029918 48.2217330684190486 26.2639818234497540
  2.5397802371029847 58.3757864462578837 26.2639818234497540
 12.6938336149418127 17.7595729349025788 26.2639818234497540
 12.6938336149418127 27.9136263127414068 26.2639818234497540
 12.6938336149418127 38.0676796905802348 26.2639818234497540
 12.6938336149418056 48.2217330684190557 26.2639818234497540
 12.6938336149418056 58.3757864462578766 26.2639818234497540
 33.0019403706194652 17.7595729349025859 26.2639818234497540
 22.8478869927806372 17.7595729349025788 26.2639818234497540
 22.8478869927806372 27.9136263127414068 26.2639818234497540
 22.8478869927806372 38.0676796905802277 26.2639818234497540
 22.8478869927806372 48.2217330684190415 26.2639818234497540
 22.8478869927806301 58.3757864462578766 26.2639818234497540
 43.1559937484582790 17.7595729349025824 26.2639818234497540
 33.0019403706194510 27.9136263127413997 26.2639818234497540
 33.0019403706194510 38.0676796905802206 26.2639818234497540
 33.0019403706194510 48.2217330684190415 26.2639818234497540
 33.0019403706194510 58.3757864462578766 26.2639818234497540
 -17.7683265185746606 48.2217330684190628 26.2639818234497540
 43.1559937484582719 27.9136263127413997 26.2639818234497540
 43.1559937484582790 38.0676796905802206 26.2639818234497540
 -7.6142731407358255 27.9136263127414139 26.2639818234497540
 -7.3173358742968899 37.1033640501936475 18.5000000000000000
 -7.3173358742968926 47.2574174280324684 18.5000000000000000
 12.9907708813807563  6.6412039166771759 18.5000000000000000
  2.8367175035419319  6.6412039166771635 18.5000000000000000
  2.8367175035419328 16.7952572945159844 18.5000000000000000
  2.8367175035419319 26.9493106723548088 18.5000000000000000
  2.8367175035419319 37.1033640501936475 18.5000000000000000
  2.8367175035419283 47.2574174280324684 18.5000000000000000
  2.8367175035419336 57.4114708058712964 18.5000000000000000
 12.9907708813807545 16.7952572945159915 18.5000000000000000
 12.9907708813807581 26.9493106723548088 18.5000000000000000
 12.9907708813807545 37.1033640501936475 18.5000000000000000
 12.9907708813807474 47.2574174280324542 18.5000000000000000
 12.9907708813807474 57.4114708058712893 18.5000000000000000
 33.2988776370583892 16.7952572945159879 18.5000000000000000
 23.1448242592195790 16.7952572945159844 18.5000000000000000
 23.1448242592195790 26.9493106723548124 18.5000000000000000
 23.1448242592195754 37.1033640501936404 18.5000000000000000
 23.1448242592195719 47.2574174280324684 18.5000000000000000
 23.1448242592195754 57.4114708058712964 18.5000000000000000
 23.1448242592195648 67.5655241837101102 18.5000000000000000
 33.2988776370584034 26.9493106723548124 18.5000000000000000
 33.2988776370584034 37.1033640501936333 18.5000000000000000
 33.2988776370583821 47.2574174280324542 18.5000000000000000
 33.2988776370584034 57.4114708058712750 18.5000000000000000
 -17.4713892521357188 47.2574174280324613 18.5000000000000000
 43.4529310148972314 26.9493106723548088 18.5000000000000000
 43.4529310148972172 37.1033640501936333 18.5000000000000000
 -7.3173358742968926 26.9493106723548159 18.5000000000000000
 -6.9372741524901480 36.5747266264526587 20.0644529715017619
 -6.9372741524901471 46.7287800042914938 20.0644529715017619
 13.3708326031874982  6.1125664929362031 20.0644529715017619
  3.2167792253486747  6.1125664929361925 20.0644529715017619
  3.2167792253486756 16.2666198707750134 20.0644529715017619
  3.2167792253486756 26.4206732486138449 20.0644529715017619
  3.2167792253486756 36.5747266264526587 20.0644529715017619
  3.2167792253486702 46.7287800042914867 20.0644529715017619
  3.2167792253486702 56.8828333821303289 20.0644529715017619
 13.3708326031875000 16.2666198707750169 20.0644529715017619
 13.3708326031875000 26.4206732486138449 20.0644529715017619
 13.3708326031874947 36.5747266264526729 20.0644529715017619
 13.3708326031874893 46.7287800042914867 20.0644529715017619
 13.3708326031875018 56.8828333821303005 20.0644529715017619
 33.6789393588651436 16.2666198707750311 20.0644529715017619
 23.5248859810263227 16.2666198707750134 20.0644529715017619
 23.5248859810263191 26.4206732486138449 20.0644529715017619
 23.5248859810263156 36.5747266264526658 20.0644529715017619
 23.5248859810263191 46.7287800042914938 20.0644529715017619
 23.5248859810263227 56.8828333821303005 20.0644529715017619
 23.5248859810263227 67.0368867599691498 20.0644529715017619
 33.6789393588651507 26.4206732486138378 20.0644529715017619
 33.6789393588651436 36.5747266264526587 20.0644529715017619
 33.6789393588651293 46.7287800042914938 20.0644529715017619
 33.6789393588651507 56.8828333821303005 20.0644529715017619
 -17.0913275303289751 46.7287800042914867 20.0644529715017619
 43.8329927367039716 26.4206732486138378 20.0644529715017619
 43.8329927367039645 36.5747266264526587 20.0644529715017619
 -6.9372741524901462 26.4206732486138520 20.0644529715017619
 -8.5734578755627417 36.7562498529015755 19.5907652569767166
 -8.5734578755627417 46.9103032307404106 19.5907652569767166
 11.7346488801149054  6.2940897193851226 19.5907652569767166
  1.5805955022760816  6.2940897193851066 19.5907652569767166
  1.5805955022760800 16.4481430972239338 19.5907652569767166
  1.5805955022760809 26.6021964750627582 19.5907652569767166
  1.5805955022760827 36.7562498529015755 19.5907652569767166
  1.5805955022760774 46.9103032307404035 19.5907652569767166
  1.5805955022760827 57.0643566085792386 19.5907652569767166
 11.7346488801149054 16.4481430972239338 19.5907652569767166
 11.7346488801149071 26.6021964750627582 19.5907652569767166
 11.7346488801149036 36.7562498529015755 19.5907652569767166
 11.7346488801149036 46.9103032307403964 19.5907652569767166
 11.7346488801149036 57.0643566085792315 19.5907652569767166
 32.0427556357925454 16.4481430972239338 19.5907652569767166
 21.8887022579537280 16.4481430972239338 19.5907652569767166
 21.8887022579537245 26.6021964750627582 19.5907652569767166
 21.8887022579537316 36.7562498529015755 19.5907652569767166
 21.8887022579537280 46.9103032307404035 19.5907652569767166
 21.8887022579537351 57.0643566085792173 19.5907652569767166
 21.8887022579537174 67.2184099864180382 19.5907652569767166
 32.0427556357925454 26.6021964750627546 19.5907652569767166
 32.0427556357925525 36.7562498529015755 19.5907652569767166
 32.0427556357925454 46.9103032307404106 19.5907652569767166
 32.0427556357925525 57.0643566085792173 19.5907652569767166
 -18.7275112534015697 46.9103032307404035 19.5907652569767166
 42.1968090136313805 26.6021964750627511 19.5907652569767166
 42.1968090136313734 36.7562498529015755 19.5907652569767166
 -8.5734578755627258 26.6021964750627689 19.5907652569767166
 -6.5322985248857393 38.9197816229523070 19.9388205473381426
 -6.5322985248857357 49.0738350007911421 19.9388205473381426
 13.7758082307919043  8.4576214894358479 19.9388205473381426
  3.6217548529530861  8.4576214894358355 19.9388205473381426
  3.6217548529530852 18.6116748672746581 19.9388205473381426
  3.6217548529530852 28.7657282451134790 19.9388205473381426
  3.6217548529530816 38.9197816229523212 19.9388205473381426
  3.6217548529530852 49.0738350007911350 19.9388205473381426
  3.6217548529530887 59.2278883786299559 19.9388205473381426
 13.7758082307919096 18.6116748672746581 19.9388205473381426
 13.7758082307919096 28.7657282451134790 19.9388205473381426
 13.7758082307919043 38.9197816229523141 19.9388205473381426
 13.7758082307919061 49.0738350007911350 19.9388205473381426
 13.7758082307919025 59.2278883786299701 19.9388205473381426
 34.0839149864695514 18.6116748672746759 19.9388205473381426
 23.9298616086307305 18.6116748672746581 19.9388205473381426
 23.9298616086307305 28.7657282451134897 19.9388205473381426
 23.9298616086307305 38.9197816229523141 19.9388205473381426
 23.9298616086307234 49.0738350007911421 19.9388205473381426
 23.9298616086307270 59.2278883786299559 19.9388205473381426
 44.2379683643083652 18.6116748672746688 19.9388205473381426
 34.0839149864695585 28.7657282451134897 19.9388205473381426
 34.0839149864695514 38.9197816229523141 19.9388205473381426
 34.0839149864695443 49.0738350007911350 19.9388205473381426
 34.0839149864695585 59.2278883786299559 19.9388205473381426
 -16.6863519027245601 49.0738350007911350 19.9388205473381426
 44.2379683643083723 28.7657282451134861 19.9388205473381426
 -6.5322985248857410 18.6116748672746688 19.9388205473381426
 -6.5322985248857348 28.7657282451134932 19.9388205473381426
 -8.1606364662215611 39.1618704299572613 19.2255680102572803
 -8.1606364662215629 49.3159238077960822 19.2255680102572803
 12.1474702894560789  8.6997102964407986 19.2255680102572803
  1.9934169116172575  8.6997102964407826 19.2255680102572803
  1.9934169116172562 18.8537636742796124 19.2255680102572803
  1.9934169116172580 29.0078170521184262 19.2255680102572803
  1.9934169116172633 39.1618704299572471 19.2255680102572803
  1.9934169116172598 49.3159238077960680 19.2255680102572803
  1.9934169116172598 59.4699771856349173 19.2255680102572803
 12.1474702894560806 18.8537636742796089 19.2255680102572803
 12.1474702894560842 29.0078170521184262 19.2255680102572803
 12.1474702894560771 39.1618704299572613 19.2255680102572803
 12.1474702894560771 49.3159238077960822 19.2255680102572803
 12.1474702894560842 59.4699771856348960 19.2255680102572803
 32.4555770451337295 18.8537636742796124 19.2255680102572803
 22.3015236672949015 18.8537636742796053 19.2255680102572803
 22.3015236672949051 29.0078170521184369 19.2255680102572803
 22.3015236672948980 39.1618704299572613 19.2255680102572803
 22.3015236672949086 49.3159238077960680 19.2255680102572803
 22.3015236672949051 59.4699771856349031 19.2255680102572803
 42.6096304229725433 18.8537636742796124 19.2255680102572803
 32.4555770451337295 29.0078170521184262 19.2255680102572803
 32.4555770451337224 39.1618704299572471 19.2255680102572803
 32.4555770451337153 49.3159238077960680 19.2255680102572803
 32.4555770451337224 59.4699771856348889 19.2255680102572803
 -18.3146898440603927 49.3159238077960822 19.2255680102572803
 42.6096304229725575 29.0078170521184262 19.2255680102572803
 42.6096304229725504 39.1618704299572471 19.2255680102572803
 -8.1606364662215540 29.0078170521184333 19.2255680102572803
 -8.2873677371637875 39.8130736147424784 21.5391726627904987
 -8.2873677371637822 49.9671269925812993 21.5391726627904987
 12.0207390185138649  9.3509134812260015 21.5391726627904987
  1.8666856406750383  9.3509134812259980 21.5391726627904987
  1.8666856406750387 19.5049668590648224 21.5391726627904987
  1.8666856406750405 29.6590202369036504 21.5391726627904987
  1.8666856406750352 39.8130736147424784 21.5391726627904987
  1.8666856406750405 49.9671269925812851 21.5391726627904987
 22.1747923963526823  9.3509134812260086 21.5391726627904987
 12.0207390185138632 19.5049668590648224 21.5391726627904987
 12.0207390185138632 29.6590202369036504 21.5391726627904987
 12.0207390185138578 39.8130736147424784 21.5391726627904987
 12.0207390185138632 49.9671269925812851 21.5391726627904987
 12.0207390185138578 60.1211803704201273 21.5391726627904987
 32.3288457741915067 19.5049668590648153 21.5391726627904987
 22.1747923963526858 19.5049668590648153 21.5391726627904987
 22.1747923963526858 29.6590202369036504 21.5391726627904987
 22.1747923963526858 39.8130736147424642 21.5391726627904987
 22.1747923963526929 49.9671269925812851 21.5391726627904987
 22.1747923963526858 60.1211803704201131 21.5391726627904987
 42.4828991520303276 19.5049668590648260 21.5391726627904987
 32.3288457741915067 29.6590202369036362 21.5391726627904987
 32.3288457741914925 39.8130736147424642 21.5391726627904987
 32.3288457741915067 49.9671269925812851 21.5391726627904987
 32.3288457741914925 60.1211803704201344 21.5391726627904987
 -18.4414211150026084 49.9671269925812922 21.5391726627904987
 42.4828991520303205 29.6590202369036469 21.5391726627904987
 42.4828991520303134 39.8130736147424713 21.5391726627904987
 -8.2873677371637751 29.6590202369036540 21.5391726627904987
 -9.2181272909587246 38.2879117245155669 21.3605800588381385
 -9.2181272909587246 48.4419651023543878 21.3605800588381385
 11.0899794647189243  7.8257515909990900 21.3605800588381385
  0.9359260868800998  7.8257515909990802 21.3605800588381385
  0.9359260868800980 17.9798049688379074 21.3605800588381385
  0.9359260868800980 28.1338583466767247 21.3605800588381385
  0.9359260868800980 38.2879117245155669 21.3605800588381385
  0.9359260868801016 48.4419651023543736 21.3605800588381385
  0.9359260868801016 58.5960184801932158 21.3605800588381385
 11.0899794647189225 17.9798049688379074 21.3605800588381385
 11.0899794647189260 28.1338583466767247 21.3605800588381385
 11.0899794647189207 38.2879117245155669 21.3605800588381385
 11.0899794647189225 48.4419651023543736 21.3605800588381385
 11.0899794647189225 58.5960184801931945 21.3605800588381385
 31.3980862203965643 17.9798049688379145 21.3605800588381385
 21.2440328425577505 17.9798049688379038 21.3605800588381385
 21.2440328425577505 28.1338583466767282 21.3605800588381385
 21.2440328425577434 38.2879117245155669 21.3605800588381385
 21.2440328425577505 48.4419651023543949 21.3605800588381385
 21.2440328425577505 58.5960184801932087 21.3605800588381385
 41.5521395982353852 17.9798049688379216 21.3605800588381385
 31.3980862203965749 28.1338583466767247 21.3605800588381385
 31.3980862203965643 38.2879117245155527 21.3605800588381385
 31.3980862203965572 48.4419651023543736 21.3605800588381385
 31.3980862203965714 58.5960184801931945 21.3605800588381385
 -19.3721806687975437 48.4419651023543807 21.3605800588381385
 41.5521395982353994 28.1338583466767247 21.3605800588381385
 41.5521395982353923 38.2879117245155527 21.3605800588381385
 -9.2181272909587122 28.1338583466767496 21.3605800588381385
 -7.3144328454433882 36.9850162409204515 22.3149674742671280
 -7.3144328454433882 47.1390696187592795 22.3149674742671280
 12.9936739102342571  6.5228561074039790 22.3149674742671280
  2.8396205323954335  6.5228561074039728 22.3149674742671280
  2.8396205323954300 16.6769094852428026 22.3149674742671280
  2.8396205323954327 26.8309628630816235 22.3149674742671280
  2.8396205323954362 36.9850162409204586 22.3149674742671280
  2.8396205323954362 47.1390696187592795 22.3149674742671280
  2.8396205323954362 57.2931229965981004 22.3149674742671280
 12.9936739102342571 16.6769094852427955 22.3149674742671280
 12.9936739102342571 26.8309628630816235 22.3149674742671280
 12.9936739102342571 36.9850162409204444 22.3149674742671280
 12.9936739102342518 47.1390696187592724 22.3149674742671280
 12.9936739102342500 57.2931229965980862 22.3149674742671280
 33.3017806659119060 16.6769094852428061 22.3149674742671280
 23.1477272880730780 16.6769094852427955 22.3149674742671280
 23.1477272880730780 26.8309628630816270 22.3149674742671280
 23.1477272880730780 36.9850162409204444 22.3149674742671280
 23.1477272880730780 47.1390696187592795 22.3149674742671280
 23.1477272880730780 57.2931229965981004 22.3149674742671280
 23.1477272880730780 67.4471763744369071 22.3149674742671280
 33.3017806659119060 26.8309628630816164 22.3149674742671280
 33.3017806659119060 36.9850162409204444 22.3149674742671280
 33.3017806659118989 47.1390696187592653 22.3149674742671280
 33.3017806659119060 57.2931229965980862 22.3149674742671280
 -17.4684862232822091 47.1390696187592653 22.3149674742671280
 43.4558340437507198 26.8309628630816164 22.3149674742671280
 43.4558340437507269 36.9850162409204444 22.3149674742671280
 -7.3144328454433820 26.8309628630816270 22.3149674742671280
 -6.2999219638534196 38.4783780316608244 22.3837014144715312
 -6.2999219638534232 48.6324314094996595 22.3837014144715312
 14.0081847918242204  8.0162178981443688 22.3837014144715312
  3.8541314139853977  8.0162178981443528 22.3837014144715312
  3.8541314139853968 18.1702712759831826 22.3837014144715312
  3.8541314139853959 28.3243246538220035 22.3837014144715312
  3.8541314139853995 38.4783780316608244 22.3837014144715312
  3.8541314139853995 48.6324314094996453 22.3837014144715312
  3.8541314139854030 58.7864847873384662 22.3837014144715312
 14.0081847918242239 18.1702712759831755 22.3837014144715312
 14.0081847918242186 28.3243246538220035 22.3837014144715312
 14.0081847918242186 38.4783780316608244 22.3837014144715312
 14.0081847918242239 48.6324314094996453 22.3837014144715312
 14.0081847918242204 58.7864847873384804 22.3837014144715312
 34.3162915475018622 18.1702712759831826 22.3837014144715312
 24.1622381696630484 18.1702712759831755 22.3837014144715312
 24.1622381696630413 28.3243246538220035 22.3837014144715312
 24.1622381696630519 38.4783780316608244 22.3837014144715312
 24.1622381696630555 48.6324314094996453 22.3837014144715312
 24.1622381696630377 58.7864847873384662 22.3837014144715312
 44.4703449253406831 18.1702712759831861 22.3837014144715312
 34.3162915475018551 28.3243246538219964 22.3837014144715312
 34.3162915475018693 38.4783780316608244 22.3837014144715312
 34.3162915475018622 48.6324314094996453 22.3837014144715312
 34.3162915475018551 58.7864847873384804 22.3837014144715312
 -16.4539753416922423 48.6324314094996453 22.3837014144715312
 44.4703449253406973 28.3243246538219964 22.3837014144715312
 -6.2999219638534276 18.1702712759831826 22.3837014144715312
 -6.2999219638534196 28.3243246538220035 22.3837014144715312
 -7.9321177164995795 39.5068441146255509 23.9843125400445807
 -7.9321177164995795 49.6608974924643718 23.9843125400445807
 12.3759890391780587  9.0446839811090918 23.9843125400445807
  2.2219356613392405  9.0446839811090776 23.9843125400445807
  2.2219356613392396 19.1987373589479020 23.9843125400445807
  2.2219356613392396 29.3527907367867300 23.9843125400445807
  2.2219356613392467 39.5068441146255438 23.9843125400445807
  2.2219356613392414 49.6608974924643789 23.9843125400445807
 22.5300424170168903  9.0446839811090882 23.9843125400445807
 12.3759890391780640 19.1987373589479056 23.9843125400445807
 12.3759890391780658 29.3527907367867300 23.9843125400445807
 12.3759890391780640 39.5068441146255438 23.9843125400445807
 12.3759890391780640 49.6608974924643718 23.9843125400445807
 12.3759890391780729 59.8149508703031927 23.9843125400445807
 32.6840957948557005 19.1987373589479091 23.9843125400445807
 22.5300424170168903 19.1987373589478949 23.9843125400445807
 22.5300424170168867 29.3527907367867300 23.9843125400445807
 22.5300424170168903 39.5068441146255509 23.9843125400445807
 22.5300424170168938 49.6608974924643718 23.9843125400445807
 22.5300424170168903 59.8149508703031785 23.9843125400445807
 42.8381491726945285 19.1987373589478985 23.9843125400445807
 32.6840957948557076 29.3527907367867265 23.9843125400445807
 32.6840957948557005 39.5068441146255438 23.9843125400445807
 32.6840957948557076 49.6608974924643718 23.9843125400445807
 32.6840957948557076 59.8149508703031785 23.9843125400445807
 -18.0861710943384004 49.6608974924643789 23.9843125400445807
 42.8381491726945356 29.3527907367867229 23.9843125400445807
 42.8381491726945285 39.5068441146255438 23.9843125400445807
 -7.9321177164995751 29.3527907367867371 23.9843125400445807
 -8.9538670429232887 38.0206627190288557 23.9010930041076861
 -8.9538670429232905 48.1747160968676766 23.9010930041076861
 11.3542397127543602  7.5585025855123851 23.9010930041076861
  1.2001863349155353  7.5585025855123735 23.9010930041076861
  1.2001863349155357 17.7125559633511962 23.9010930041076861
  1.2001863349155357 27.8666093411900277 23.9010930041076861
  1.2001863349155357 38.0206627190288557 23.9010930041076861
  1.2001863349155357 48.1747160968676837 23.9010930041076861
  1.2001863349155357 58.3287694747065117 23.9010930041076861
 11.3542397127543602 17.7125559633511998 23.9010930041076861
 11.3542397127543584 27.8666093411900277 23.9010930041076861
 11.3542397127543548 38.0206627190288486 23.9010930041076861
 11.3542397127543531 48.1747160968676695 23.9010930041076861
 11.3542397127543602 58.3287694747064975 23.9010930041076861
 31.6623464684320091 17.7125559633511962 23.9010930041076861
 21.5082930905931846 17.7125559633511962 23.9010930041076861
 21.5082930905931811 27.8666093411900206 23.9010930041076861
 21.5082930905931775 38.0206627190288486 23.9010930041076861
 21.5082930905931775 48.1747160968676766 23.9010930041076861
 21.5082930905931775 58.3287694747064904 23.9010930041076861
 41.8163998462708122 17.7125559633511962 23.9010930041076861
 31.6623464684320126 27.8666093411900206 23.9010930041076861
 31.6623464684320055 38.0206627190288486 23.9010930041076861
 31.6623464684319949 48.1747160968676766 23.9010930041076861
 31.6623464684320055 58.3287694747064975 23.9010930041076861
 -19.1079204207621238 48.1747160968676766 23.9010930041076861
 41.8163998462708335 27.8666093411900206 23.9010930041076861
 41.8163998462708264 38.0206627190288415 23.9010930041076861
 -8.9538670429232852 27.8666093411900349 23.9010930041076861
 -6.0218426639896316 38.1423769179944543 24.8819834012736898
 -6.0218426639896290 48.2964302958332894 24.8819834012736898
 14.2862640916880164  7.6802167844780085 24.8819834012736898
  4.1322107138491955  7.6802167844779889 24.8819834012736898
  4.1322107138491955 17.8342701623168125 24.8819834012736898
  4.1322107138491955 27.9883235401556405 24.8819834012736898
  4.1322107138491919 38.1423769179944614 24.8819834012736898
  4.1322107138491972 48.2964302958332894 24.8819834012736898
  4.1322107138491937 58.4504836736721245 24.8819834012736898
 14.2862640916880181 17.8342701623168125 24.8819834012736898
 14.2862640916880199 27.9883235401556334 24.8819834012736898
 14.2862640916880181 38.1423769179944543 24.8819834012736898
 14.2862640916880181 48.2964302958332752 24.8819834012736898
 14.2862640916880181 58.4504836736720961 24.8819834012736898
 34.5943708473656670 17.8342701623168232 24.8819834012736898
 24.4403174695268426 17.8342701623168125 24.8819834012736898
 24.4403174695268390 27.9883235401556405 24.8819834012736898
 24.4403174695268355 38.1423769179944614 24.8819834012736898
 24.4403174695268461 48.2964302958332894 24.8819834012736898
 24.4403174695268426 58.4504836736720961 24.8819834012736898
 24.4403174695268390 68.6045370515109312 24.8819834012736898
 34.5943708473656599 27.9883235401556405 24.8819834012736898
 34.5943708473656670 38.1423769179944543 24.8819834012736898
 34.5943708473656670 48.2964302958332894 24.8819834012736898
 34.5943708473656670 58.4504836736720961 24.8819834012736898
 -16.1758960418284516 48.2964302958332965 24.8819834012736898
 44.7484242252044879 27.9883235401556334 24.8819834012736898
 -6.0218426639896263 17.8342701623168125 24.8819834012736898
 -6.0218426639896210 27.9883235401556441 24.8819834012736898
 -7.0431342180357923 36.6585243268313548 24.8014337561493683
 -7.0431342180357888 46.8125777046701614 24.8014337561493683
 13.2649725376418548  6.1963641933148850 24.8014337561493683
  3.1109191598030330  6.1963641933148725 24.8014337561493683
  3.1109191598030321 16.3504175711537023 24.8014337561493683
  3.1109191598030357 26.5044709489925232 24.8014337561493683
  3.1109191598030286 36.6585243268313548 24.8014337561493683
  3.1109191598030357 46.8125777046701756 24.8014337561493683
  3.1109191598030357 56.9666310825089965 24.8014337561493683
 13.2649725376418530 16.3504175711537023 24.8014337561493683
 13.2649725376418566 26.5044709489925232 24.8014337561493683
 13.2649725376418530 36.6585243268313548 24.8014337561493683
 13.2649725376418548 46.8125777046701614 24.8014337561493683
 13.2649725376418566 56.9666310825089823 24.8014337561493683
 33.5730792933194948 16.3504175711537272 24.8014337561493683
 23.4190259154806775 16.3504175711536988 24.8014337561493683
 23.4190259154806810 26.5044709489925197 24.8014337561493683
 23.4190259154806810 36.6585243268313548 24.8014337561493683
 23.4190259154806739 46.8125777046701685 24.8014337561493683
 23.4190259154806846 56.9666310825089894 24.8014337561493683
 23.4190259154806633 67.1206844603478459 24.8014337561493683
 33.5730792933195090 26.5044709489925197 24.8014337561493683
 33.5730792933195019 36.6585243268313405 24.8014337561493683
 33.5730792933195019 46.8125777046701614 24.8014337561493683
 33.5730792933195090 56.9666310825089823 24.8014337561493683
 -17.1971875958746132 46.8125777046701828 24.8014337561493683
 43.7271326711583228 26.5044709489925125 24.8014337561493683
 43.7271326711583157 36.6585243268313477 24.8014337561493683
 -7.0431342180357870 26.5044709489925232 24.8014337561493683
 -8.5878210159838098 37.6937279811933905 26.3441808095417542
 -8.5878210159838062 47.8477813590322114 26.3441808095417542
 11.7202857396938374  7.2315678476769181 26.3441808095417542
  1.5662323618550111  7.2315678476769110 26.3441808095417542
  1.5662323618550102 17.3856212255157381 26.3441808095417542
  1.5662323618550129 27.5396746033545554 26.3441808095417542
  1.5662323618550094 37.6937279811933905 26.3441808095417542
  1.5662323618550111 47.8477813590321972 26.3441808095417542
  1.5662323618550147 58.0018347368710394 26.3441808095417542
 11.7202857396938356 17.3856212255157416 26.3441808095417542
 11.7202857396938391 27.5396746033545554 26.3441808095417542
 11.7202857396938356 37.6937279811933763 26.3441808095417542
 11.7202857396938303 47.8477813590321972 26.3441808095417542
 11.7202857396938356 58.0018347368710252 26.3441808095417542
 32.0283924953714774 17.3856212255157558 26.3441808095417542
 21.8743391175326529 17.3856212255157345 26.3441808095417542
 21.8743391175326565 27.5396746033545625 26.3441808095417542
 21.8743391175326494 37.6937279811933905 26.3441808095417542
 21.8743391175326636 47.8477813590321972 26.3441808095417542
 21.8743391175326600 58.0018347368710181 26.3441808095417542
 42.1824458732103054 17.3856212255157487 26.3441808095417542
 32.0283924953714845 27.5396746033545554 26.3441808095417542
 32.0283924953714774 37.6937279811933905 26.3441808095417542
 32.0283924953714774 47.8477813590321972 26.3441808095417542
 32.0283924953714774 58.0018347368710181 26.3441808095417542
 -18.7418743938226449 47.8477813590322256 26.3441808095417542
 42.1824458732103125 27.5396746033545554 26.3441808095417542
 42.1824458732102983 37.6937279811933763 26.3441808095417542
 -8.5878210159837938 27.5396746033545661 26.3441808095417542
 -7.0174936565777655 37.6167693495225137 26.9945901650752447
 -7.0174936565777593 47.7708227273613346 26.9945901650752447
 13.2906130990998790  7.1546092160060617 26.9945901650752447
  3.1365597212610581  7.1546092160060466 26.9945901650752447
  3.1365597212610599 17.3086625938448684 26.9945901650752447
  3.1365597212610599 27.4627159716836964 26.9945901650752447
  3.1365597212610545 37.6167693495225208 26.9945901650752447
  3.1365597212610581 47.7708227273613346 26.9945901650752447
  3.1365597212610616 57.9248761052001768 26.9945901650752447
 13.2906130990998825 17.3086625938448719 26.9945901650752447
 13.2906130990998861 27.4627159716836999 26.9945901650752447
 13.2906130990998719 37.6167693495225208 26.9945901650752447
 13.2906130990998808 47.7708227273613346 26.9945901650752447
 13.2906130990998825 57.9248761052001555 26.9945901650752447
 33.5987198547775137 17.3086625938448826 26.9945901650752447
 23.4446664769387070 17.3086625938448684 26.9945901650752447
 23.4446664769387070 27.4627159716836928 26.9945901650752447
 23.4446664769387070 37.6167693495225137 26.9945901650752447
 23.4446664769387105 47.7708227273613346 26.9945901650752447
 23.4446664769387070 57.9248761052001555 26.9945901650752447
 23.4446664769386928 68.0789294830390190 26.9945901650752447
 33.5987198547775350 27.4627159716836999 26.9945901650752447
 33.5987198547775279 37.6167693495225137 26.9945901650752447
 33.5987198547775208 47.7708227273613346 26.9945901650752447
 33.5987198547775279 57.9248761052001555 26.9945901650752447
 -17.1715470344165908 47.7708227273613559 26.9945901650752447
 43.7527732326163559 27.4627159716836928 26.9945901650752447
 43.7527732326163417 37.6167693495225208 26.9945901650752447
 -7.0174936565777646 27.4627159716837035 26.9945901650752447
 -7.6180147155795668 39.1017866986375537 26.4210609886066159
 -7.6180147155795659 49.2558400764763746 26.4210609886066159
 12.6900920400980706  8.6396265651210946 26.4210609886066159
  2.5360386622592554  8.6396265651210804 26.4210609886066159
  2.5360386622592559 18.7936799429599048 26.4210609886066159
  2.5360386622592550 28.9477333207987328 26.4210609886066159
  2.5360386622592497 39.1017866986375608 26.4210609886066159
  2.5360386622592515 49.2558400764763960 26.4210609886066159
  2.5360386622592550 59.4098934543152097 26.4210609886066159
 12.6900920400980812 18.7936799429599048 26.4210609886066159
 12.6900920400980812 28.9477333207987328 26.4210609886066159
 12.6900920400980723 39.1017866986375537 26.4210609886066159
 12.6900920400980706 49.2558400764763888 26.4210609886066159
 12.6900920400980723 59.4098934543152026 26.4210609886066159
 32.9981987957757212 18.7936799429599155 26.4210609886066159
 22.8441454179369039 18.7936799429599048 26.4210609886066159
 22.8441454179369039 28.9477333207987328 26.4210609886066159
 22.8441454179368968 39.1017866986375680 26.4210609886066159
 22.8441454179369074 49.2558400764763960 26.4210609886066159
 22.8441454179368932 59.4098934543151955 26.4210609886066159
 43.1522521736145421 18.7936799429599048 26.4210609886066159
 32.9981987957757283 28.9477333207987293 26.4210609886066159
 32.9981987957757212 39.1017866986375537 26.4210609886066159
 32.9981987957757212 49.2558400764763746 26.4210609886066159
 32.9981987957757212 59.4098934543152026 26.4210609886066159
 -17.7720680934183903 49.2558400764763817 26.4210609886066159
 43.1522521736145563 28.9477333207987257 26.4210609886066159
 43.1522521736145421 39.1017866986375537 26.4210609886066159
 -7.6180147155795659 28.9477333207987328 26.4210609886066159
 -2.5304705644896739 32.0705126808714454 19.5035493961519037
 -2.5304705644896703 42.2245660587102662 19.5035493961519037
 -2.5304705644896721 52.3786194365490942 19.5035493961519037
 -12.6845239423284983 52.3786194365490800 19.5035493961519037
  7.6235828133491497 11.7624059251937858 19.5035493961519037
  7.6235828133491497 21.9164593030326103 19.5035493961519037
  7.6235828133491470 32.0705126808714311 19.5035493961519037
  7.6235828133491488 42.2245660587102520 19.5035493961519037
  7.6235828133491523 52.3786194365490942 19.5035493961519037
 17.7776361911879732 11.7624059251937894 19.5035493961519037
 17.7776361911879768 21.9164593030326103 19.5035493961519037
 17.7776361911879732 32.0705126808714311 19.5035493961519037
 17.7776361911879732 42.2245660587102520 19.5035493961519037
 17.7776361911879732 52.3786194365490800 19.5035493961519037
 17.7776361911879661 62.5326728143879009 19.5035493961519037
 27.9316895690267941 11.7624059251937840 19.5035493961519037
 27.9316895690267941 21.9164593030326103 19.5035493961519037
 27.9316895690267941 32.0705126808714240 19.5035493961519037
 27.9316895690267941 42.2245660587102520 19.5035493961519037
 27.9316895690267941 52.3786194365490729 19.5035493961519037
 27.9316895690267728 62.5326728143879222 19.5035493961519037
 38.0857429468656221 21.9164593030326103 19.5035493961519037
 38.0857429468656150 32.0705126808714311 19.5035493961519037
 38.0857429468656079 42.2245660587102520 19.5035493961519037
 -12.6845239423284895 32.0705126808714311 19.5035493961519037
 -12.6845239423284966 42.2245660587102591 19.5035493961519037
 48.2397963247044501 21.9164593030326103 19.5035493961519037
 -2.5304705644896774 11.7624059251937840 19.5035493961519037
 -2.5304705644896703 21.9164593030326138 19.5035493961519037
 -2.5023410741121328 33.4663972955826878 19.9450047113663516
 -2.5023410741121310 43.6204506734215158 19.9450047113663516
 -2.5023410741121310 53.7745040512603367 19.9450047113663516
 -12.6563944519509519 53.7745040512603367 19.9450047113663516
  7.6517123037266916 13.1582905399050389 19.9450047113663516
  7.6517123037266925 23.3123439177438598 19.9450047113663516
  7.6517123037266899 33.4663972955826878 19.9450047113663516
  7.6517123037266934 43.6204506734215087 19.9450047113663516
  7.6517123037266934 53.7745040512603509 19.9450047113663516
 17.8057656815655214 13.1582905399050389 19.9450047113663516
 17.8057656815655179 23.3123439177438598 19.9450047113663516
 17.8057656815655072 33.4663972955826949 19.9450047113663516
 17.8057656815655108 43.6204506734215158 19.9450047113663516
 17.8057656815655179 53.7745040512603367 19.9450047113663516
 17.8057656815655214 63.9285574290991576 19.9450047113663516
 27.9598190594043352 13.1582905399050407 19.9450047113663516
 27.9598190594043388 23.3123439177438634 19.9450047113663516
 27.9598190594043388 33.4663972955826878 19.9450047113663516
 27.9598190594043494 43.6204506734215229 19.9450047113663516
 27.9598190594043317 53.7745040512603367 19.9450047113663516
 27.9598190594043317 63.9285574290991718 19.9450047113663516
 38.1138724372431668 23.3123439177438598 19.9450047113663516
 38.1138724372431597 33.4663972955826949 19.9450047113663516
 38.1138724372431525 43.6204506734215158 19.9450047113663516
 -12.6563944519509501 33.4663972955826878 19.9450047113663516
 -12.6563944519509537 43.6204506734215229 19.9450047113663516
 48.2679258150819805 23.3123439177438563 19.9450047113663516
 -2.5023410741121332 13.1582905399050425 19.9450047113663516
 -2.5023410741121310 23.3123439177438740 19.9450047113663516
 -3.1175880774485485 33.6452688113710963 21.3430320128339801
 -3.1175880774485449 43.7993221892099101 21.3430320128339801
 -3.1175880774485414 53.9533755670487523 21.3430320128339801
  7.0364653003902751  3.1831086778546211 21.3430320128339801
  7.0364653003902751 13.3371620556934509 21.3430320128339801
  7.0364653003902768 23.4912154335322683 21.3430320128339801
  7.0364653003902777 33.6452688113710963 21.3430320128339801
  7.0364653003902742 43.7993221892099172 21.3430320128339801
  7.0364653003902795 53.9533755670487452 21.3430320128339801
 17.1905186782291004 13.3371620556934474 21.3430320128339801
 17.1905186782291040 23.4912154335322683 21.3430320128339801
 17.1905186782290968 33.6452688113710892 21.3430320128339801
 17.1905186782290968 43.7993221892099172 21.3430320128339801
 17.1905186782291004 53.9533755670487523 21.3430320128339801
 17.1905186782290933 64.1074289448875732 21.3430320128339801
 27.3445720560679177 13.3371620556934438 21.3430320128339801
 27.3445720560679177 23.4912154335322718 21.3430320128339801
 27.3445720560679177 33.6452688113710892 21.3430320128339801
 27.3445720560679284 43.7993221892099172 21.3430320128339801
 27.3445720560679248 53.9533755670487380 21.3430320128339801
 27.3445720560679106 64.1074289448875732 21.3430320128339801
 37.4986254339067528 23.4912154335322754 21.3430320128339801
 37.4986254339067386 33.6452688113710821 21.3430320128339801
 37.4986254339067386 43.7993221892099172 21.3430320128339801
 -13.2716414552873587 33.6452688113711034 21.3430320128339801
 -13.2716414552873694 43.7993221892099172 21.3430320128339801
 47.6526788117455737 23.4912154335322683 21.3430320128339801
 -3.1175880774485458 13.3371620556934474 21.3430320128339801
 -3.1175880774485396 23.4912154335322718 21.3430320128339801
 -2.2622721167608599 33.0106756923618150 22.4491485172145246
 -2.2622721167608599 43.1647290702006501 22.4491485172145246
 -2.2622721167608617 53.3187824480394710 22.4491485172145246
 -12.4163254945996826 53.3187824480394710 22.4491485172145246
  7.8917812610779610 12.7025689366841696 22.4491485172145246
  7.8917812610779636 22.8566223145229976 22.4491485172145246
  7.8917812610779627 33.0106756923618150 22.4491485172145246
  7.8917812610779627 43.1647290702006359 22.4491485172145246
  7.8917812610779663 53.3187824480394781 22.4491485172145246
 18.0458346389167872 12.7025689366841696 22.4491485172145246
 18.0458346389167836 22.8566223145229976 22.4491485172145246
 18.0458346389167872 33.0106756923618150 22.4491485172145246
 18.0458346389167872 43.1647290702006359 22.4491485172145246
 18.0458346389167872 53.3187824480394639 22.4491485172145246
 18.0458346389167836 63.4728358258782848 22.4491485172145246
 28.1998880167556081 12.7025689366841661 22.4491485172145246
 28.1998880167556010 22.8566223145229941 22.4491485172145246
 28.1998880167556010 33.0106756923618150 22.4491485172145246
 28.1998880167556081 43.1647290702006359 22.4491485172145246
 28.1998880167556010 53.3187824480394710 22.4491485172145246
 28.1998880167556081 63.4728358258782777 22.4491485172145246
 38.3539413945944290 22.8566223145229905 22.4491485172145246
 38.3539413945944148 33.0106756923618150 22.4491485172145246
 38.3539413945944290 43.1647290702006359 22.4491485172145246
 -12.4163254945996737 33.0106756923618150 22.4491485172145246
 -12.4163254945996826 43.1647290702006359 22.4491485172145246
 48.5079947724332499 22.8566223145229905 22.4491485172145246
 -2.2622721167608626 12.7025689366841714 22.4491485172145246
 -2.2622721167608457 22.8566223145230083 22.4491485172145246
 -2.8350659590048224 33.3277512538041876 23.8357882634943898
 -2.8350659590048242 43.4818046316430156 23.8357882634943898
 -2.8350659590048188 53.6358580094818365 23.8357882634943898
 -12.9891193368436468 53.6358580094818436 23.8357882634943898
  7.3189874188339950 13.0196444981265422 23.8357882634943898
  7.3189874188339958 23.1736978759653738 23.8357882634943898
  7.3189874188339985 33.3277512538041876 23.8357882634943898
  7.3189874188339985 43.4818046316430085 23.8357882634943898
  7.3189874188340056 53.6358580094818507 23.8357882634943898
 17.4730407966728229 13.0196444981265458 23.8357882634943898
 17.4730407966728229 23.1736978759653738 23.8357882634943898
 17.4730407966728194 33.3277512538041876 23.8357882634943898
 17.4730407966728123 43.4818046316430156 23.8357882634943898
 17.4730407966728194 53.6358580094818365 23.8357882634943898
 17.4730407966728194 63.7899113873206716 23.8357882634943898
 27.6270941745116474 13.0196444981265422 23.8357882634943898
 27.6270941745116474 23.1736978759653667 23.8357882634943898
 27.6270941745116474 33.3277512538041876 23.8357882634943898
 27.6270941745116438 43.4818046316430156 23.8357882634943898
 27.6270941745116403 53.6358580094818365 23.8357882634943898
 27.6270941745116367 63.7899113873206858 23.8357882634943898
 37.7811475523504683 23.1736978759653667 23.8357882634943898
 37.7811475523504683 33.3277512538041876 23.8357882634943898
 37.7811475523504612 43.4818046316430156 23.8357882634943898
 -12.9891193368436415 33.3277512538041876 23.8357882634943898
 -12.9891193368436539 43.4818046316430298 23.8357882634943898
 47.9352009301892821 23.1736978759653667 23.8357882634943898
 -2.8350659590048282 13.0196444981265422 23.8357882634943898
 -2.8350659590048224 23.1736978759653667 23.8357882634943898
 -1.9889674103899981 32.6851230231269270 24.9429834756677664
 -1.9889674103899981 42.8391764009657479 24.9429834756677664
 -1.9889674103899999 52.9932297788045901 24.9429834756677664
 -12.1430207882288155 52.9932297788045688 24.9429834756677664
  8.1650859674488245 12.3770162674492816 24.9429834756677664
  8.1650859674488245 22.5310696452881132 24.9429834756677664
  8.1650859674488245 32.6851230231269341 24.9429834756677664
  8.1650859674488210 42.8391764009657550 24.9429834756677664
  8.1650859674488245 52.9932297788045830 24.9429834756677664
 18.3191393452876419 12.3770162674492816 24.9429834756677664
 18.3191393452876525 22.5310696452881061 24.9429834756677664
 18.3191393452876454 32.6851230231269341 24.9429834756677664
 18.3191393452876383 42.8391764009657621 24.9429834756677664
 18.3191393452876419 52.9932297788045901 24.9429834756677664
 18.3191393452876348 63.1472831566434110 24.9429834756677664
 28.4731927231264734 12.3770162674492852 24.9429834756677664
 28.4731927231264699 22.5310696452881061 24.9429834756677664
 28.4731927231264734 32.6851230231269412 24.9429834756677664
 28.4731927231264734 42.8391764009657550 24.9429834756677664
 28.4731927231264734 52.9932297788045830 24.9429834756677664
 28.4731927231264557 63.1472831566433968 24.9429834756677664
 38.6272461009652943 22.5310696452881061 24.9429834756677664
 38.6272461009652872 32.6851230231269341 24.9429834756677664
 38.6272461009652872 42.8391764009657621 24.9429834756677664
 -12.1430207882288155 32.6851230231269341 24.9429834756677664
 -12.1430207882288244 42.8391764009657692 24.9429834756677664
 48.7812994788041152 22.5310696452881096 24.9429834756677664
 -1.9889674103900026 12.3770162674492870 24.9429834756677664
 -1.9889674103899972 22.5310696452881132 24.9429834756677664
 -2.5372464518164222 32.9906530016608244 26.2639818234497540
 -2.5372464518164239 43.1447063794996453 26.2639818234497540
 -2.5372464518164222 53.2987597573384733 26.2639818234497540
 -12.6912998296552431 53.2987597573384733 26.2639818234497540
  7.6168069260224005 12.6825462459831684 26.2639818234497540
  7.6168069260224005 22.8365996238219928 26.2639818234497540
  7.6168069260223987 32.9906530016608173 26.2639818234497540
  7.6168069260223987 43.1447063794996382 26.2639818234497540
  7.6168069260224023 53.2987597573384733 26.2639818234497540
 17.7708603038612267 12.6825462459831684 26.2639818234497540
 17.7708603038612232 22.8365996238219893 26.2639818234497540
 17.7708603038612196 32.9906530016608173 26.2639818234497540
 17.7708603038612232 43.1447063794996453 26.2639818234497540
 17.7708603038612161 53.2987597573384662 26.2639818234497540
 17.7708603038612303 63.4528131351772799 26.2639818234497540
 27.9249136817000476 12.6825462459831630 26.2639818234497540
 27.9249136817000547 22.8365996238219964 26.2639818234497540
 27.9249136817000476 32.9906530016608102 26.2639818234497540
 27.9249136817000512 43.1447063794996453 26.2639818234497540
 27.9249136817000476 53.2987597573384591 26.2639818234497540
 27.9249136817000476 63.4528131351772799 26.2639818234497540
 38.0789670595388756 22.8365996238219893 26.2639818234497540
 38.0789670595388543 32.9906530016608173 26.2639818234497540
 38.0789670595388543 43.1447063794996382 26.2639818234497540
 -12.6912998296552431 32.9906530016608173 26.2639818234497540
 -12.6912998296552466 43.1447063794996382 26.2639818234497540
 48.2330204373776894 22.8365996238219928 26.2639818234497540
 -2.5372464518164284 12.6825462459831684 26.2639818234497540
 -2.5372464518164239 22.8365996238219928 26.2639818234497540
 -2.2403091853774804 32.0263373612742370 18.5000000000000000
 -2.2403091853774768 42.1803907391130579 18.5000000000000000
 -2.2403091853774768 52.3344441169518788 18.5000000000000000
 -12.3943625632163013 52.3344441169518646 18.5000000000000000
  7.9137441924613414 11.7182306055965739 18.5000000000000000
  7.9137441924613450 21.8722839834353948 18.5000000000000000
  7.9137441924613388 32.0263373612742370 18.5000000000000000
  7.9137441924613459 42.1803907391130437 18.5000000000000000
  7.9137441924613441 52.3344441169518717 18.5000000000000000
 18.0677975703001721 11.7182306055965775 18.5000000000000000
 18.0677975703001721 21.8722839834353948 18.5000000000000000
 18.0677975703001579 32.0263373612742299 18.5000000000000000
 18.0677975703001650 42.1803907391130579 18.5000000000000000
 18.0677975703001614 52.3344441169518717 18.5000000000000000
 18.0677975703001579 62.4884974947907068 18.5000000000000000
 28.2218509481389894 11.7182306055965739 18.5000000000000000
 28.2218509481389930 21.8722839834353948 18.5000000000000000
 28.2218509481389930 32.0263373612742228 18.5000000000000000
 28.2218509481390001 42.1803907391130437 18.5000000000000000
 28.2218509481390001 52.3344441169518646 18.5000000000000000
 28.2218509481389823 62.4884974947906997 18.5000000000000000
 38.3759043259778139 21.8722839834353948 18.5000000000000000
 38.3759043259778068 32.0263373612742370 18.5000000000000000
 38.3759043259778139 42.1803907391130437 18.5000000000000000
 -12.3943625632162995 32.0263373612742228 18.5000000000000000
 -12.3943625632163030 42.1803907391130650 18.5000000000000000
 48.5299577038166490 21.8722839834353948 18.5000000000000000
 -2.2403091853774888 11.7182306055965828 18.5000000000000000
 -2.2403091853774706 21.8722839834354161 18.5000000000000000
 -1.8602474635707331 31.4976999375332554 20.0644529715017619
 -1.8602474635707384 41.6517533153720692 20.0644529715017619
 -1.8602474635707331 51.8058066932109114 20.0644529715017619
 -12.0143008414095576 51.8058066932108972 20.0644529715017619
  8.2938059142680842 11.1895931818556065 20.0644529715017619
  8.2938059142680842 21.3436465596944309 20.0644529715017619
  8.2938059142680824 31.4976999375332589 20.0644529715017619
  8.2938059142680878 41.6517533153720763 20.0644529715017619
  8.2938059142680878 51.8058066932108972 20.0644529715017619
 18.4478592921069122 11.1895931818556100 20.0644529715017619
 18.4478592921069158 21.3436465596944274 20.0644529715017619
 18.4478592921069051 31.4976999375332554 20.0644529715017619
 18.4478592921069051 41.6517533153720763 20.0644529715017619
 18.4478592921069122 51.8058066932108972 20.0644529715017619
 18.4478592921068980 61.9598600710497323 20.0644529715017619
  8.2938059142680807 61.9598600710497180 20.0644529715017619
 28.6019126699457296 21.3436465596944345 20.0644529715017619
 28.6019126699457331 31.4976999375332518 20.0644529715017619
 28.6019126699457331 41.6517533153720692 20.0644529715017619
 28.6019126699457367 51.8058066932108972 20.0644529715017619
 28.6019126699457331 61.9598600710497180 20.0644529715017619
 38.7559660477845469 21.3436465596944238 20.0644529715017619
 38.7559660477845540 31.4976999375332447 20.0644529715017619
 38.7559660477845398 41.6517533153720692 20.0644529715017619
 -12.0143008414095469 31.4976999375332483 20.0644529715017619
 -12.0143008414095593 41.6517533153720834 20.0644529715017619
 48.9100194256233678 21.3436465596944274 20.0644529715017619
 -1.8602474635707407 11.1895931818556100 20.0644529715017619
 -1.8602474635707322 21.3436465596944345 20.0644529715017619
 -3.4964311866433269 31.6792231639821686 19.5907652569767166
 -3.4964311866433349 41.8332765418209931 19.5907652569767166
 -3.4964311866433277 51.9873299196598282 19.5907652569767166
 -13.6504845644821486 51.9873299196597998 19.5907652569767166
  6.6576221911954931 11.3711164083045162 19.5907652569767166
  6.6576221911954923 21.5251697861433477 19.5907652569767166
  6.6576221911954896 31.6792231639821722 19.5907652569767166
  6.6576221911954878 41.8332765418210002 19.5907652569767166
  6.6576221911954967 51.9873299196598282 19.5907652569767166
 16.8116755690343176 11.3711164083045198 19.5907652569767166
 16.8116755690343176 21.5251697861433442 19.5907652569767166
 16.8116755690343105 31.6792231639821686 19.5907652569767166
 16.8116755690343140 41.8332765418210002 19.5907652569767166
 16.8116755690343069 51.9873299196598282 19.5907652569767166
 16.8116755690343176 62.1413832974986562 19.5907652569767166
 26.9657289468731420 11.3711164083045198 19.5907652569767166
 26.9657289468731420 21.5251697861433442 19.5907652569767166
 26.9657289468731385 31.6792231639821793 19.5907652569767166
 26.9657289468731385 41.8332765418209931 19.5907652569767166
 26.9657289468731349 51.9873299196598211 19.5907652569767166
 26.9657289468731385 62.1413832974986420 19.5907652569767166
 37.1197823247119629 21.5251697861433442 19.5907652569767166
 37.1197823247119487 31.6792231639821686 19.5907652569767166
 37.1197823247119629 41.8332765418210002 19.5907652569767166
 37.1197823247119700 51.9873299196598282 19.5907652569767166
 -13.6504845644821469 41.8332765418210073 19.5907652569767166
 47.2738357025507838 21.5251697861433442 19.5907652569767166
 -3.4964311866433357 11.3711164083045215 19.5907652569767166
 -3.4964311866433286 21.5251697861433513 19.5907652569767166
 -1.4552718359663270 33.8427549340329108 19.9388205473381426
 -1.4552718359663235 43.9968083118717175 19.9388205473381426
 -1.4552718359663253 54.1508616897105597 19.9388205473381426
 -11.6093252138051497 54.1508616897105455 19.9388205473381426
  8.6987815418724974 13.5346481783552477 19.9388205473381426
  8.6987815418724956 23.6887015561940686 19.9388205473381426
  8.6987815418724903 33.8427549340329108 19.9388205473381426
  8.6987815418724956 43.9968083118717175 19.9388205473381426
  8.6987815418725027 54.1508616897105455 19.9388205473381426
 18.8528349197113201 13.5346481783552477 19.9388205473381426
 18.8528349197113236 23.6887015561940686 19.9388205473381426
 18.8528349197113165 33.8427549340329037 19.9388205473381426
 18.8528349197113201 43.9968083118717175 19.9388205473381426
 18.8528349197113201 54.1508616897105384 19.9388205473381426
 18.8528349197113165 64.3049150675493735 19.9388205473381426
 29.0068882975501410 13.5346481783552441 19.9388205473381426
 29.0068882975501374 23.6887015561940721 19.9388205473381426
 29.0068882975501445 33.8427549340329108 19.9388205473381426
 29.0068882975501481 43.9968083118717175 19.9388205473381426
 29.0068882975501374 54.1508616897105384 19.9388205473381426
 29.0068882975501410 64.3049150675493877 19.9388205473381426
 39.1609416753889619 23.6887015561940686 19.9388205473381426
 39.1609416753889619 33.8427549340329108 19.9388205473381426
 39.1609416753889619 43.9968083118717175 19.9388205473381426
 -11.6093252138051426 33.8427549340329037 19.9388205473381426
 -11.6093252138051533 43.9968083118717317 19.9388205473381426
 49.3149950532277970 23.6887015561940686 19.9388205473381426
 -1.4552718359663195 13.5346481783552584 19.9388205473381426
 -1.4552718359663146 23.6887015561940828 19.9388205473381426
 -3.0836097773021525 34.0848437410378509 19.2255680102572803
 -3.0836097773021578 44.2388971188766718 19.2255680102572803
 -3.0836097773021542 54.3929504967154998 19.2255680102572803
  7.0704436005366702  3.6226836075213686 19.2255680102572803
  7.0704436005366684 13.7767369853601913 19.2255680102572803
  7.0704436005366702 23.9307903631990229 19.2255680102572803
  7.0704436005366667 34.0848437410378438 19.2255680102572803
  7.0704436005366667 44.2388971188766718 19.2255680102572803
  7.0704436005366738 54.3929504967154855 19.2255680102572803
 17.2244969783754946 13.7767369853601949 19.2255680102572803
 17.2244969783754946 23.9307903631990229 19.2255680102572803
 17.2244969783754946 34.0848437410378438 19.2255680102572803
 17.2244969783754911 44.2388971188766718 19.2255680102572803
 17.2244969783755018 54.3929504967154926 19.2255680102572803
 17.2244969783754875 64.5470038745543206 19.2255680102572803
 27.3785503562143191 13.7767369853601913 19.2255680102572803
 27.3785503562143191 23.9307903631990158 19.2255680102572803
 27.3785503562143155 34.0848437410378438 19.2255680102572803
 27.3785503562143191 44.2388971188766718 19.2255680102572803
 27.3785503562143191 54.3929504967154784 19.2255680102572803
 27.3785503562143049 64.5470038745543206 19.2255680102572803
 37.5326037340531258 23.9307903631990193 19.2255680102572803
 37.5326037340531329 34.0848437410378438 19.2255680102572803
 37.5326037340531258 44.2388971188766646 19.2255680102572803
 -13.2376631551409751 34.0848437410378509 19.2255680102572803
 -13.2376631551409734 44.2388971188766718 19.2255680102572803
 47.6866571118919680 23.9307903631990158 19.2255680102572803
 -3.0836097773021520 13.7767369853601984 19.2255680102572803
 -3.0836097773021445 23.9307903631990300 19.2255680102572803
 -3.2103410482443717 34.7360469258230538 21.5391726627904987
 -3.2103410482443717 44.8901003036618746 21.5391726627904987
 -3.2103410482443699 55.0441536815007169 21.5391726627904987
  6.9437123295944492  4.2738867923065840 21.5391726627904987
  6.9437123295944509 14.4279401701454066 21.5391726627904987
  6.9437123295944501 24.5819935479842364 21.5391726627904987
  6.9437123295944438 34.7360469258230680 21.5391726627904987
  6.9437123295944492 44.8901003036618889 21.5391726627904987
  6.9437123295944545 55.0441536815007026 21.5391726627904987
 17.0977657074332754 14.4279401701454084 21.5391726627904987
 17.0977657074332754 24.5819935479842293 21.5391726627904987
 17.0977657074332683 34.7360469258230609 21.5391726627904987
 17.0977657074332683 44.8901003036618889 21.5391726627904987
 17.0977657074332683 55.0441536815007098 21.5391726627904987
 17.0977657074332754 65.1982070593395520 21.5391726627904987
 27.2518190852720963 14.4279401701454049 21.5391726627904987
 27.2518190852720998 24.5819935479842400 21.5391726627904987
 27.2518190852720927 34.7360469258230609 21.5391726627904987
 27.2518190852720963 44.8901003036618818 21.5391726627904987
 27.2518190852720963 55.0441536815007098 21.5391726627904987
 27.2518190852720927 65.1982070593395235 21.5391726627904987
 37.4058724631109243 24.5819935479842258 21.5391726627904987
 37.4058724631109243 34.7360469258230538 21.5391726627904987
 37.4058724631109101 44.8901003036618818 21.5391726627904987
 -13.3643944260831855 34.7360469258230680 21.5391726627904987
 -13.3643944260832050 44.8901003036618818 21.5391726627904987
 47.5599258409497381 24.5819935479842293 21.5391726627904987
 -3.2103410482443691 14.4279401701454120 21.5391726627904987
 -3.2103410482443646 24.5819935479842435 21.5391726627904987
 -4.1411006020393106 33.2108850355961351 21.3605800588381385
 -4.1411006020393106 43.3649384134349560 21.3605800588381385
 -4.1411006020393089 53.5189917912737982 21.3605800588381385
  6.0129527757995112  2.7487249020796689 21.3605800588381385
  6.0129527757995094 12.9027782799184951 21.3605800588381385
  6.0129527757995094 23.0568316577573214 21.3605800588381385
  6.0129527757995120 33.2108850355961494 21.3605800588381385
  6.0129527757995067 43.3649384134349702 21.3605800588381385
  6.0129527757995191 53.5189917912737911 21.3605800588381385
 16.1670061536383365 12.9027782799184934 21.3605800588381385
 16.1670061536383400 23.0568316577573142 21.3605800588381385
 16.1670061536383294 33.2108850355961422 21.3605800588381385
 16.1670061536383294 43.3649384134349560 21.3605800588381385
 16.1670061536383294 53.5189917912737911 21.3605800588381385
 16.1670061536383365 63.6730451691126120 21.3605800588381385
 26.3210595314771574 12.9027782799184951 21.3605800588381385
 26.3210595314771609 23.0568316577573214 21.3605800588381385
 26.3210595314771609 33.2108850355961494 21.3605800588381385
 26.3210595314771609 43.3649384134349560 21.3605800588381385
 26.3210595314771538 53.5189917912737911 21.3605800588381385
 26.3210595314771609 63.6730451691126120 21.3605800588381385
 36.4751129093159818 23.0568316577573214 21.3605800588381385
 36.4751129093159818 33.2108850355961351 21.3605800588381385
 36.4751129093159605 43.3649384134349560 21.3605800588381385
 36.4751129093159818 53.5189917912737911 21.3605800588381385
 -14.2951539798781386 43.3649384134349702 21.3605800588381385
 46.6291662871547956 23.0568316577573142 21.3605800588381385
 -4.1411006020393142 12.9027782799184880 21.3605800588381385
 -4.1411006020393115 23.0568316577573285 21.3605800588381385
 -2.2374061565239742 31.9079895520010304 22.3149674742671280
 -2.2374061565239760 42.0620429298398477 22.3149674742671280
 -2.2374061565239778 52.2160963076786757 22.3149674742671280
 -12.3914595343628022 52.2160963076786828 22.3149674742671280
  7.9166472213148431 11.5998827963233850 22.3149674742671280
  7.9166472213148413 21.7539361741622059 22.3149674742671280
  7.9166472213148378 31.9079895520010410 22.3149674742671280
  7.9166472213148484 42.0620429298398477 22.3149674742671280
  7.9166472213148467 52.2160963076786686 22.3149674742671280
 18.0707005991536676 11.5998827963233850 22.3149674742671280
 18.0707005991536711 21.7539361741622130 22.3149674742671280
 18.0707005991536604 31.9079895520010410 22.3149674742671280
 18.0707005991536676 42.0620429298398477 22.3149674742671280
 18.0707005991536604 52.2160963076786828 22.3149674742671280
 18.0707005991536640 62.3701496855175179 22.3149674742671280
 28.2247539769924884 11.5998827963233833 22.3149674742671280
 28.2247539769924920 21.7539361741622166 22.3149674742671280
 28.2247539769924849 31.9079895520010375 22.3149674742671280
 28.2247539769924956 42.0620429298398477 22.3149674742671280
 28.2247539769924813 52.2160963076786686 22.3149674742671280
 28.2247539769924813 62.3701496855175179 22.3149674742671280
 38.3788073548313164 21.7539361741622059 22.3149674742671280
 38.3788073548313022 31.9079895520010268 22.3149674742671280
 38.3788073548313093 42.0620429298398477 22.3149674742671280
 -12.3914595343628022 31.9079895520010268 22.3149674742671280
 -12.3914595343628129 42.0620429298398619 22.3149674742671280
 48.5328607326701302 21.7539361741622095 22.3149674742671280
 -2.2374061565239756 11.5998827963233886 22.3149674742671280
 -2.2374061565239707 21.7539361741622166 22.3149674742671280
 -1.2228952749340145 33.4013513427414210 22.3837014144715312
 -1.2228952749340163 43.5554047205802419 22.3837014144715312
 -1.2228952749340216 53.7094580984190699 22.3837014144715312
 -11.3769486527728372 53.7094580984190628 22.3837014144715312
  8.9311581029048082 13.0932445870637650 22.3837014144715312
  8.9311581029048082 23.2472979649025895 22.3837014144715312
  8.9311581029048099 33.4013513427414068 22.3837014144715312
  8.9311581029048099 43.5554047205802419 22.3837014144715312
  8.9311581029048064 53.7094580984190699 22.3837014144715312
 19.0852114807436273 13.0932445870637650 22.3837014144715312
 19.0852114807436379 23.2472979649025895 22.3837014144715312
 19.0852114807436273 33.4013513427414068 22.3837014144715312
 19.0852114807436273 43.5554047205802277 22.3837014144715312
 19.0852114807436308 53.7094580984190628 22.3837014144715312
 19.0852114807436237 63.8635114762578979 22.3837014144715312
 29.2392648585824588 13.0932445870637597 22.3837014144715312
 29.2392648585824553 23.2472979649025895 22.3837014144715312
 29.2392648585824517 33.4013513427414068 22.3837014144715312
 29.2392648585824588 43.5554047205802277 22.3837014144715312
 29.2392648585824517 53.7094580984190628 22.3837014144715312
 29.2392648585824446 63.8635114762578695 22.3837014144715312
 39.3933182364212797 23.2472979649025859 22.3837014144715312
 39.3933182364212797 33.4013513427414068 22.3837014144715312
 39.3933182364212726 43.5554047205802348 22.3837014144715312
 -11.3769486527728283 33.4013513427414210 22.3837014144715312
 -11.3769486527728354 43.5554047205802490 22.3837014144715312
 49.5473716142601077 23.2472979649025788 22.3837014144715312
 -1.2228952749340150 13.0932445870637650 22.3837014144715312
 -1.2228952749340092 23.2472979649025930 22.3837014144715312
 -2.8550910275801726 34.4298174257061476 23.9843125400445807
 -2.8550910275801726 44.5838708035449756 23.9843125400445807
 -2.8550910275801726 54.7379241813837965 23.9843125400445807
  7.2989623502586509  3.9676572921896627 23.9843125400445807
  7.2989623502586527 14.1217106700284862 23.9843125400445807
  7.2989623502586509 24.2757640478673125 23.9843125400445807
  7.2989623502586500 34.4298174257061476 23.9843125400445807
  7.2989623502586465 44.5838708035449685 23.9843125400445807
  7.2989623502586554 54.7379241813838036 23.9843125400445807
 17.4530157280974763 14.1217106700284880 23.9843125400445807
 17.4530157280974798 24.2757640478673089 23.9843125400445807
 17.4530157280974763 34.4298174257061476 23.9843125400445807
 17.4530157280974692 44.5838708035449613 23.9843125400445807
 17.4530157280974763 54.7379241813837893 23.9843125400445807
 17.4530157280974763 64.8919775592225960 23.9843125400445807
 27.6070691059362971 14.1217106700284827 23.9843125400445807
 27.6070691059363043 24.2757640478673125 23.9843125400445807
 27.6070691059362900 34.4298174257061405 23.9843125400445807
 27.6070691059363043 44.5838708035449685 23.9843125400445807
 27.6070691059362971 54.7379241813837893 23.9843125400445807
 27.6070691059362900 64.8919775592225960 23.9843125400445807
 37.7611224837751251 24.2757640478673089 23.9843125400445807
 37.7611224837751251 34.4298174257061333 23.9843125400445807
 37.7611224837751180 44.5838708035449613 23.9843125400445807
 -13.0091444054189829 34.4298174257061333 23.9843125400445807
 -13.0091444054189971 44.5838708035449613 23.9843125400445807
 47.9151758616139531 24.2757640478673089 23.9843125400445807
 -2.8550910275801704 14.1217106700284898 23.9843125400445807
 -2.8550910275801646 24.2757640478673231 23.9843125400445807
 -3.8768403540038712 32.9436360301094311 23.9010930041076861
 -3.8768403540038747 43.0976894079482520 23.9010930041076861
 -3.8768403540038747 53.2517427857870871 23.9010930041076861
 -14.0308937318426956 53.2517427857870729 23.9010930041076861
  6.2772130238349479 12.6355292744317858 23.9010930041076861
  6.2772130238349462 22.7895826522706102 23.9010930041076861
  6.2772130238349533 32.9436360301094311 23.9010930041076861
  6.2772130238349497 43.0976894079482520 23.9010930041076861
  6.2772130238349533 53.2517427857870871 23.9010930041076861
 16.4312664016737706 12.6355292744317858 23.9010930041076861
 16.4312664016737706 22.7895826522706102 23.9010930041076861
 16.4312664016737742 32.9436360301094311 23.9010930041076861
 16.4312664016737635 43.0976894079482520 23.9010930041076861
 16.4312664016737706 53.2517427857870800 23.9010930041076861
 16.4312664016737742 63.4057961636259080 23.9010930041076861
 26.5853197795125951 12.6355292744317822 23.9010930041076861
 26.5853197795125951 22.7895826522706102 23.9010930041076861
 26.5853197795125951 32.9436360301094311 23.9010930041076861
 26.5853197795126022 43.0976894079482520 23.9010930041076861
 26.5853197795125809 53.2517427857870729 23.9010930041076861
 26.5853197795125880 63.4057961636259080 23.9010930041076861
 36.7393731573514088 22.7895826522706031 23.9010930041076861
 36.7393731573514017 32.9436360301094311 23.9010930041076861
 36.7393731573514160 43.0976894079482520 23.9010930041076861
 36.7393731573514231 53.2517427857870729 23.9010930041076861
 -14.0308937318427027 43.0976894079482733 23.9010930041076861
 46.8934265351902297 22.7895826522706031 23.9010930041076861
 -3.8768403540038774 12.6355292744317875 23.9010930041076861
 -3.8768403540038703 22.7895826522706137 23.9010930041076861
 -0.9448159750702150 33.0653502290750438 24.8819834012736898
 -0.9448159750702185 43.2194036069138718 24.8819834012736898
 -0.9448159750702203 53.3734569847527069 24.8819834012736898
 -11.0988693529090376 53.3734569847526927 24.8819834012736898
  9.2092374027686077 12.7572434733973985 24.8819834012736898
  9.2092374027686077 22.9112968512362229 24.8819834012736898
  9.2092374027686077 33.0653502290750438 24.8819834012736898
  9.2092374027686095 43.2194036069138789 24.8819834012736898
  9.2092374027686077 53.3734569847527069 24.8819834012736898
 19.3632907806074321 12.7572434733974021 24.8819834012736898
 19.3632907806074357 22.9112968512362229 24.8819834012736898
 19.3632907806074286 33.0653502290750438 24.8819834012736898
 19.3632907806074286 43.2194036069138647 24.8819834012736898
 19.3632907806074286 53.3734569847526927 24.8819834012736898
 19.3632907806074215 63.5275103625915349 24.8819834012736898
 29.5173441584462495 12.7572434733973950 24.8819834012736898
 29.5173441584462566 22.9112968512362265 24.8819834012736898
 29.5173441584462495 33.0653502290750367 24.8819834012736898
 29.5173441584462566 43.2194036069138718 24.8819834012736898
 29.5173441584462495 53.3734569847526927 24.8819834012736898
 29.5173441584462388 63.5275103625915278 24.8819834012736898
 39.6713975362850846 22.9112968512362229 24.8819834012736898
 39.6713975362850704 33.0653502290750367 24.8819834012736898
 39.6713975362850704 43.2194036069138718 24.8819834012736898
 -11.0988693529090270 33.0653502290750438 24.8819834012736898
 -11.0988693529090465 43.2194036069138718 24.8819834012736898
 -0.9448159750702105  2.6031900955585776 24.8819834012736898
 -0.9448159750702154 12.7572434733973985 24.8819834012736898
 -0.9448159750702105 22.9112968512362301 24.8819834012736898
 -1.9661075291163765 31.5814976379119301 24.8014337561493683
 -1.9661075291163783 41.7355510157507581 24.8014337561493683
 -1.9661075291163783 51.8896043935895790 24.8014337561493683
 -12.1201609069551992 51.8896043935895790 24.8014337561493683
  8.1879458487224444 11.2733908822342848 24.8014337561493683
  8.1879458487224461 21.4274442600731092 24.8014337561493683
  8.1879458487224444 31.5814976379119408 24.8014337561493683
  8.1879458487224461 41.7355510157507581 24.8014337561493683
  8.1879458487224461 51.8896043935895932 24.8014337561493683
 18.3419992265612670 11.2733908822342901 24.8014337561493683
 18.3419992265612706 21.4274442600731057 24.8014337561493683
 18.3419992265612706 31.5814976379119408 24.8014337561493683
 18.3419992265612706 41.7355510157507510 24.8014337561493683
 18.3419992265612635 51.8896043935895790 24.8014337561493683
 18.3419992265612706 62.0436577714283999 24.8014337561493683
  8.1879458487224461 62.0436577714283999 24.8014337561493683
 28.4960526044000950 21.4274442600731092 24.8014337561493683
 28.4960526044000950 31.5814976379119301 24.8014337561493683
 28.4960526044000986 41.7355510157507581 24.8014337561493683
 28.4960526044000950 51.8896043935895790 24.8014337561493683
 28.4960526044000915 62.0436577714283999 24.8014337561493683
 38.6501059822389053 21.4274442600731057 24.8014337561493683
 38.6501059822389124 31.5814976379119301 24.8014337561493683
 38.6501059822389124 41.7355510157507581 24.8014337561493683
 -12.1201609069551992 31.5814976379119337 24.8014337561493683
 -12.1201609069552010 41.7355510157507581 24.8014337561493683
 48.8041593600777475 21.4274442600731057 24.8014337561493683
 -1.9661075291163832 11.2733908822342848 24.8014337561493683
 -1.9661075291163677 21.4274442600731199 24.8014337561493683
 -3.5107943270644029 32.6167012922739730 26.3441808095417542
 -3.5107943270644011 42.7707546701128010 26.3441808095417542
 -3.5107943270644011 52.9248080479516361 26.3441808095417542
 -13.6648477049032273 52.9248080479516219 26.3441808095417542
  6.6432590507744225 12.3085945365963205 26.3441808095417542
  6.6432590507744234 22.4626479144351521 26.3441808095417542
  6.6432590507744198 32.6167012922739730 26.3441808095417542
  6.6432590507744198 42.7707546701127939 26.3441808095417542
  6.6432590507744251 52.9248080479516290 26.3441808095417542
 16.7973124286132460 12.3085945365963205 26.3441808095417542
 16.7973124286132496 22.4626479144351521 26.3441808095417542
 16.7973124286132425 32.6167012922739730 26.3441808095417542
 16.7973124286132425 42.7707546701127868 26.3441808095417542
 16.7973124286132460 52.9248080479516148 26.3441808095417542
 16.7973124286132425 63.0788614257904356 26.3441808095417542
 26.9513658064520669 12.3085945365963205 26.3441808095417542
 26.9513658064520669 22.4626479144351521 26.3441808095417542
 26.9513658064520705 32.6167012922739730 26.3441808095417542
 26.9513658064520705 42.7707546701127868 26.3441808095417542
 26.9513658064520669 52.9248080479516148 26.3441808095417542
 26.9513658064520634 63.0788614257904356 26.3441808095417542
 37.1054191842908807 22.4626479144351343 26.3441808095417542
 37.1054191842908949 32.6167012922739659 26.3441808095417542
 37.1054191842908878 42.7707546701127868 26.3441808095417542
 37.1054191842908949 52.9248080479516148 26.3441808095417542
 -13.6648477049032309 42.7707546701127868 26.3441808095417542
 47.2594725621297158 22.4626479144351450 26.3441808095417542
 -3.5107943270644006 12.3085945365963223 26.3441808095417542
 -3.5107943270643958 22.4626479144351521 26.3441808095417542
 -1.9404669676583524 32.5397426606031175 26.9945901650752447
 -1.9404669676583470 42.6937960384419384 26.9945901650752447
 -1.9404669676583488 52.8478494162807522 26.9945901650752447
 -12.0945203454971733 52.8478494162807522 26.9945901650752447
  8.2135864101804668 12.2316359049254579 26.9945901650752447
  8.2135864101804721 22.3856892827642788 26.9945901650752447
  8.2135864101804721 32.5397426606031033 26.9945901650752447
  8.2135864101804685 42.6937960384419384 26.9945901650752447
  8.2135864101804756 52.8478494162807522 26.9945901650752447
 18.3676397880192894 12.2316359049254579 26.9945901650752447
 18.3676397880192894 22.3856892827642824 26.9945901650752447
 18.3676397880192894 32.5397426606031104 26.9945901650752447
 18.3676397880192930 42.6937960384419384 26.9945901650752447
 18.3676397880192894 52.8478494162807522 26.9945901650752447
 18.3676397880192965 63.0019027941195731 26.9945901650752447
 28.5216931658581174 12.2316359049254579 26.9945901650752447
 28.5216931658581103 22.3856892827642824 26.9945901650752447
 28.5216931658581210 32.5397426606031033 26.9945901650752447
 28.5216931658581245 42.6937960384419313 26.9945901650752447
 28.5216931658581210 52.8478494162807593 26.9945901650752447
 28.5216931658581139 63.0019027941195731 26.9945901650752447
 38.6757465436969383 22.3856892827642859 26.9945901650752447
 38.6757465436969454 32.5397426606031033 26.9945901650752447
 38.6757465436969241 42.6937960384419313 26.9945901650752447
 -12.0945203454971608 32.5397426606031033 26.9945901650752447
 -12.0945203454971768 42.6937960384419313 26.9945901650752447
 48.8297999215357521 22.3856892827642788 26.9945901650752447
 -1.9404669676583457 12.2316359049254579 26.9945901650752447
 -1.9404669676583524 22.3856892827642824 26.9945901650752447
 -2.5409880266601519 34.0247600097181362 26.4210609886066159
 -2.5409880266601554 44.1788133875569713 26.4210609886066159
 -2.5409880266601554 54.3328667653957922 26.4210609886066159
  7.6130653511786672  3.5625998762016691 26.4210609886066159
  7.6130653511786655 13.7166532540404909 26.4210609886066159
  7.6130653511786690 23.8707066318793188 26.4210609886066159
  7.6130653511786690 34.0247600097181362 26.4210609886066159
  7.6130653511786672 44.1788133875569571 26.4210609886066159
  7.6130653511786690 54.3328667653957993 26.4210609886066159
 17.7671187290174899 13.7166532540404944 26.4210609886066159
 17.7671187290174899 23.8707066318793188 26.4210609886066159
 17.7671187290174899 34.0247600097181362 26.4210609886066159
 17.7671187290174899 44.1788133875569571 26.4210609886066159
 17.7671187290174970 54.3328667653957851 26.4210609886066159
 17.7671187290174899 64.4869201432346131 26.4210609886066159
 27.9211721068563143 13.7166532540404891 26.4210609886066159
 27.9211721068563143 23.8707066318793153 26.4210609886066159
 27.9211721068563214 34.0247600097181362 26.4210609886066159
 27.9211721068563108 44.1788133875569642 26.4210609886066159
 27.9211721068563250 54.3328667653957780 26.4210609886066159
 27.9211721068563072 64.4869201432346131 26.4210609886066159
 38.0752254846951388 23.8707066318793153 26.4210609886066159
 38.0752254846951388 34.0247600097181362 26.4210609886066159
 38.0752254846951246 44.1788133875569571 26.4210609886066159
 -12.6950414044989746 34.0247600097181362 26.4210609886066159
 -12.6950414044989799 44.1788133875569713 26.4210609886066159
 48.2292788625339810 23.8707066318793153 26.4210609886066159
 -2.5409880266601590 13.7166532540404909 26.4210609886066159
 -2.5409880266601430 23.8707066318793224 26.4210609886066159
 -7.6074972534090843 39.0078609640003293 39.5116309339985818
 -7.6074972534090843 49.1619143418391644 39.5116309339985818
 12.7006095022685610  8.5457008304838773 39.5116309339985818
  2.5465561244297374  8.5457008304838595 39.5116309339985818
  2.5465561244297348 18.6997542083226875 39.5116309339985818
  2.5465561244297366 28.8538075861615155 39.5116309339985818
  2.5465561244297401 39.0078609640003435 39.5116309339985818
  2.5465561244297419 49.1619143418391502 39.5116309339985818
  2.5465561244297348 59.3159677196779924 39.5116309339985818
 12.7006095022685592 18.6997542083226875 39.5116309339985818
 12.7006095022685592 28.8538075861615013 39.5116309339985818
 12.7006095022685557 39.0078609640003364 39.5116309339985818
 12.7006095022685610 49.1619143418391502 39.5116309339985818
 12.7006095022685592 59.3159677196779853 39.5116309339985818
 33.0087162579462046 18.6997542083226911 39.5116309339985818
 22.8546628801073872 18.6997542083226804 39.5116309339985818
 22.8546628801073837 28.8538075861615155 39.5116309339985818
 22.8546628801073872 39.0078609640003435 39.5116309339985818
 22.8546628801073908 49.1619143418391502 39.5116309339985818
 22.8546628801073837 59.3159677196779782 39.5116309339985818
 43.1627696357850255 18.6997542083226875 39.5116309339985818
 33.0087162579461975 28.8538075861614978 39.5116309339985818
 33.0087162579461975 39.0078609640003293 39.5116309339985818
 33.0087162579461975 49.1619143418391502 39.5116309339985818
 33.0087162579462046 59.3159677196779995 39.5116309339985818
 -17.7615506312479212 49.1619143418391573 39.5116309339985818
 43.1627696357850326 28.8538075861615049 39.5116309339985818
 43.1627696357850255 39.0078609640003293 39.5116309339985818
 -7.6074972534090781 28.8538075861615226 39.5116309339985818
 -7.5793677630315406 37.6119763492890939 39.0701756187841411
 -7.5793677630315450 47.7660297271279148 39.0701756187841411
 12.7287389926461039  7.1498162157726224 39.0701756187841411
  2.5746856148072803  7.1498162157726100 39.0701756187841411
  2.5746856148072776 17.3038695936114379 39.0701756187841411
  2.5746856148072830 27.4579229714502517 39.0701756187841411
  2.5746856148072794 37.6119763492890939 39.0701756187841411
  2.5746856148072759 47.7660297271279148 39.0701756187841411
  2.5746856148072794 57.9200831049667428 39.0701756187841411
 12.7287389926461021 17.3038695936114344 39.0701756187841411
 12.7287389926461039 27.4579229714502553 39.0701756187841411
 12.7287389926461003 37.6119763492890868 39.0701756187841411
 12.7287389926461003 47.7660297271279006 39.0701756187841411
 12.7287389926461003 57.9200831049667357 39.0701756187841411
 33.0368457483237350 17.3038695936114308 39.0701756187841411
 22.8827923704849177 17.3038695936114308 39.0701756187841411
 22.8827923704849248 27.4579229714502659 39.0701756187841411
 22.8827923704849283 37.6119763492890797 39.0701756187841411
 22.8827923704849248 47.7660297271279077 39.0701756187841411
 22.8827923704849212 57.9200831049667286 39.0701756187841411
 43.1908991261625701 17.3038695936114308 39.0701756187841411
 33.0368457483237563 27.4579229714502517 39.0701756187841411
 33.0368457483237563 37.6119763492890797 39.0701756187841411
 33.0368457483237350 47.7660297271279006 39.0701756187841411
 33.0368457483237563 57.9200831049667357 39.0701756187841411
 -17.7334211408703588 47.7660297271279077 39.0701756187841411
 43.1908991261625772 27.4579229714502517 39.0701756187841411
 43.1908991261625701 37.6119763492890797 39.0701756187841411
 -7.5793677630315388 27.4579229714502695 39.0701756187841411
 -8.1946147663679607 37.4331048335006713 37.6721483173165055
 -8.1946147663679589 47.5871582113395064 37.6721483173165055
 12.1134919893096864  6.9709446999842184 37.6721483173165055
  1.9594386114708637  6.9709446999842033 37.6721483173165055
  1.9594386114708646 17.1249980778230224 37.6721483173165055
  1.9594386114708637 27.2790514556618540 37.6721483173165055
  1.9594386114708620 37.4331048335006784 37.6721483173165055
  1.9594386114708655 47.5871582113395135 37.6721483173165055
  1.9594386114708655 57.7412115891783415 37.6721483173165055
 12.1134919893096900 17.1249980778230260 37.6721483173165055
 12.1134919893096900 27.2790514556618540 37.6721483173165055
 12.1134919893096829 37.4331048335006784 37.6721483173165055
 12.1134919893096829 47.5871582113394993 37.6721483173165055
 12.1134919893096829 57.7412115891783060 37.6721483173165055
 32.4215987449873211 17.1249980778230402 37.6721483173165055
 22.2675453671485144 17.1249980778230295 37.6721483173165055
 22.2675453671485144 27.2790514556618504 37.6721483173165055
 22.2675453671485073 37.4331048335006784 37.6721483173165055
 22.2675453671485144 47.5871582113395064 37.6721483173165055
 22.2675453671485144 57.7412115891783131 37.6721483173165055
 42.5756521228261562 17.1249980778230402 37.6721483173165055
 32.4215987449873282 27.2790514556618504 37.6721483173165055
 32.4215987449873282 37.4331048335006784 37.6721483173165055
 32.4215987449873140 47.5871582113395064 37.6721483173165055
 32.4215987449873353 57.7412115891783060 37.6721483173165055
 -18.3486681442067940 47.5871582113395135 37.6721483173165055
 42.5756521228261633 27.2790514556618469 37.6721483173165055
 42.5756521228261491 37.4331048335006784 37.6721483173165055
 -8.1946147663679518 27.2790514556618646 37.6721483173165055
 -7.3392988056802739 38.0676979525099597 36.5660318129359609
 -7.3392988056802722 48.2217513303487877 36.5660318129359609
 12.9688079499973732  7.6055378189934899 36.5660318129359609
  2.8147545721585510  7.6055378189934775 36.5660318129359609
  2.8147545721585523 17.7595911968322966 36.5660318129359609
  2.8147545721585523 27.9136445746711281 36.5660318129359609
  2.8147545721585505 38.0676979525099597 36.5660318129359609
  2.8147545721585452 48.2217513303487806 36.5660318129359609
  2.8147545721585594 58.3758047081876086 36.5660318129359609
 12.9688079499973767 17.7595911968323001 36.5660318129359609
 12.9688079499973767 27.9136445746711317 36.5660318129359609
 12.9688079499973696 38.0676979525099455 36.5660318129359609
 12.9688079499973679 48.2217513303487735 36.5660318129359609
 12.9688079499973661 58.3758047081876086 36.5660318129359609
 33.2769147056750114 17.7595911968323179 36.5660318129359609
 23.1228613278362012 17.7595911968322966 36.5660318129359609
 23.1228613278361976 27.9136445746711246 36.5660318129359609
 23.1228613278361976 38.0676979525099455 36.5660318129359609
 23.1228613278361976 48.2217513303487806 36.5660318129359609
 23.1228613278361941 58.3758047081876157 36.5660318129359609
 43.4309680835138323 17.7595911968323144 36.5660318129359609
 33.2769147056750256 27.9136445746711210 36.5660318129359609
 33.2769147056750185 38.0676979525099455 36.5660318129359609
 33.2769147056750114 48.2217513303487806 36.5660318129359609
 33.2769147056750256 58.3758047081876086 36.5660318129359609
 -17.4933521835191037 48.2217513303487877 36.5660318129359609
 43.4309680835138323 27.9136445746711175 36.5660318129359609
 43.4309680835138394 38.0676979525099455 36.5660318129359609
 -7.3392988056802722 27.9136445746711352 36.5660318129359609
 -7.9120926479242382 37.7506223910675871 35.1793920666560993
 -7.9120926479242399 47.9046757689064080 35.1793920666560993
 12.3960141077534125  7.2884622575511102 35.1793920666560993
  2.2419607299145858  7.2884622575511031 35.1793920666560993
  2.2419607299145845 17.4425156353899311 35.1793920666560993
  2.2419607299145827 27.5965690132287556 35.1793920666560993
  2.2419607299145827 37.7506223910675871 35.1793920666560993
  2.2419607299145845 47.9046757689064151 35.1793920666560993
  2.2419607299145845 58.0587291467452360 35.1793920666560993
 12.3960141077534090 17.4425156353899311 35.1793920666560993
 12.3960141077534090 27.5965690132287520 35.1793920666560993
 12.3960141077534036 37.7506223910675800 35.1793920666560993
 12.3960141077534072 47.9046757689064080 35.1793920666560993
 12.3960141077534054 58.0587291467452218 35.1793920666560993
 32.7041208634310507 17.4425156353899347 35.1793920666560993
 22.5500674855922334 17.4425156353899240 35.1793920666560993
 22.5500674855922298 27.5965690132287591 35.1793920666560993
 22.5500674855922298 37.7506223910675800 35.1793920666560993
 22.5500674855922227 47.9046757689064080 35.1793920666560993
 22.5500674855922334 58.0587291467452147 35.1793920666560993
 42.8581742412698645 17.4425156353899418 35.1793920666560993
 32.7041208634310578 27.5965690132287520 35.1793920666560993
 32.7041208634310578 37.7506223910675800 35.1793920666560993
 32.7041208634310436 47.9046757689064151 35.1793920666560993
 32.7041208634310578 58.0587291467452076 35.1793920666560993
 -18.0661460257630608 47.9046757689064009 35.1793920666560993
 42.8581742412698716 27.5965690132287520 35.1793920666560993
 42.8581742412698645 37.7506223910675800 35.1793920666560993
 -7.9120926479242275 27.5965690132287698 35.1793920666560993
 -7.0659940993094095 38.3932506217448335 34.0721968544827192
 -7.0659940993094086 48.5473039995836686 34.0721968544827192
 13.2421126563682385  7.9310904882283726 34.0721968544827192
  3.0880592785294141  7.9310904882283646 34.0721968544827192
  3.0880592785294132 18.0851438660671846 34.0721968544827192
  3.0880592785294123 28.2391972439060126 34.0721968544827192
  3.0880592785294159 38.3932506217448477 34.0721968544827192
  3.0880592785294176 48.5473039995836615 34.0721968544827192
  3.0880592785294176 58.7013573774224824 34.0721968544827192
 13.2421126563682385 18.0851438660671882 34.0721968544827192
 13.2421126563682385 28.2391972439060126 34.0721968544827192
 13.2421126563682403 38.3932506217448335 34.0721968544827192
 13.2421126563682332 48.5473039995836544 34.0721968544827192
 13.2421126563682385 58.7013573774224895 34.0721968544827192
 33.5502194120458839 18.0851438660671953 34.0721968544827192
 23.3961660342070594 18.0851438660671846 34.0721968544827192
 23.3961660342070559 28.2391972439060162 34.0721968544827192
 23.3961660342070630 38.3932506217448335 34.0721968544827192
 23.3961660342070559 48.5473039995836615 34.0721968544827192
 23.3961660342070559 58.7013573774224824 34.0721968544827192
 43.7042727898847048 18.0851438660672024 34.0721968544827192
 33.5502194120458768 28.2391972439060055 34.0721968544827192
 33.5502194120458910 38.3932506217448335 34.0721968544827192
 33.5502194120458768 48.5473039995836615 34.0721968544827192
 33.5502194120458910 58.7013573774224824 34.0721968544827192
 -17.2200474771482348 48.5473039995836686 34.0721968544827192
 43.7042727898846977 28.2391972439060055 34.0721968544827192
 -7.0659940993094086 18.0851438660671917 34.0721968544827192
 -7.0659940993094033 28.2391972439060197 34.0721968544827192
 -7.6142731407358317 38.0877206432109503 32.7511985067007316
 -7.6142731407358326 48.2417740210497854 32.7511985067007316
 12.6938336149418127  7.6255605096944983 32.7511985067007316
  2.5397802371029883  7.6255605096944805 32.7511985067007316
  2.5397802371029892 17.7796138875333050 32.7511985067007316
  2.5397802371029883 27.9336672653721259 32.7511985067007316
  2.5397802371029901 38.0877206432109503 32.7511985067007316
  2.5397802371029918 48.2417740210497712 32.7511985067007316
  2.5397802371029954 58.3958273988886134 32.7511985067007316
 12.6938336149418127 17.7796138875333014 32.7511985067007316
 12.6938336149418127 27.9336672653721259 32.7511985067007316
 12.6938336149418092 38.0877206432109574 32.7511985067007316
 12.6938336149418056 48.2417740210497712 32.7511985067007316
 12.6938336149418127 58.3958273988885992 32.7511985067007316
 33.0019403706194581 17.7796138875333121 32.7511985067007316
 22.8478869927806372 17.7796138875333014 32.7511985067007316
 22.8478869927806336 27.9336672653721294 32.7511985067007316
 22.8478869927806407 38.0877206432109645 32.7511985067007316
 22.8478869927806301 48.2417740210497783 32.7511985067007316
 22.8478869927806265 58.3958273988886063 32.7511985067007316
 43.1559937484582790 17.7796138875333050 32.7511985067007316
 33.0019403706194510 27.9336672653721223 32.7511985067007316
 33.0019403706194581 38.0877206432109574 32.7511985067007316
 33.0019403706194510 48.2417740210497783 32.7511985067007316
 33.0019403706194581 58.3958273988885992 32.7511985067007316
 -17.7683265185746571 48.2417740210497712 32.7511985067007316
 43.1559937484582719 27.9336672653721223 32.7511985067007316
 43.1559937484582790 38.0877206432109503 32.7511985067007316
 -7.6142731407358291 27.9336672653721330 32.7511985067007316
 -7.3173358742968917 39.0520362835975590 40.5151803301504927
 -7.3173358742968944 49.2060896614363656 40.5151803301504927
 12.9907708813807528  8.5898761500810838 40.5151803301504927
  2.8367175035419310  8.5898761500810750 40.5151803301504927
  2.8367175035419319 18.7439295279198959 40.5151803301504927
  2.8367175035419354 28.8979829057587168 40.5151803301504927
  2.8367175035419301 39.0520362835975661 40.5151803301504927
  2.8367175035419301 49.2060896614363799 40.5151803301504927
  2.8367175035419301 59.3601430392752150 40.5151803301504927
 12.9907708813807545 18.7439295279199030 40.5151803301504927
 12.9907708813807599 28.8979829057587168 40.5151803301504927
 12.9907708813807492 39.0520362835975590 40.5151803301504927
 12.9907708813807545 49.2060896614363656 40.5151803301504927
 12.9907708813807474 59.3601430392752150 40.5151803301504927
 33.2988776370584034 18.7439295279199030 40.5151803301504927
 23.1448242592195790 18.7439295279199030 40.5151803301504927
 23.1448242592195825 28.8979829057587239 40.5151803301504927
 23.1448242592195754 39.0520362835975590 40.5151803301504927
 23.1448242592195790 49.2060896614363656 40.5151803301504927
 23.1448242592195754 59.3601430392752150 40.5151803301504927
 43.4529310148972101 18.7439295279198994 40.5151803301504927
 33.2988776370584034 28.8979829057587239 40.5151803301504927
 33.2988776370584105 39.0520362835975590 40.5151803301504927
 33.2988776370583963 49.2060896614363656 40.5151803301504927
 33.2988776370583963 59.3601430392752150 40.5151803301504927
 -17.4713892521357117 49.2060896614363728 40.5151803301504927
 43.4529310148972243 28.8979829057587168 40.5151803301504927
 -7.3173358742968846 18.7439295279199101 40.5151803301504927
 -7.3173358742968784 28.8979829057587345 40.5151803301504927
 -6.9372741524901462 39.5806737073385193 38.9507273586487344
 -6.9372741524901436 49.7347270851773473 38.9507273586487344
 13.3708326031874982  9.1185135738220584 38.9507273586487344
  3.2167792253486751  9.1185135738220424 38.9507273586487344
  3.2167792253486756 19.2725669516608704 38.9507273586487344
  3.2167792253486756 29.4266203294996949 38.9507273586487344
  3.2167792253486720 39.5806737073385193 38.9507273586487344
  3.2167792253486809 49.7347270851773473 38.9507273586487344
  3.2167792253486773 59.8887804630161611 38.9507273586487344
 13.3708326031874982 19.2725669516608704 38.9507273586487344
 13.3708326031875000 29.4266203294996949 38.9507273586487344
 13.3708326031874929 39.5806737073385264 38.9507273586487344
 13.3708326031874982 49.7347270851773473 38.9507273586487344
 13.3708326031874947 59.8887804630161611 38.9507273586487344
 33.6789393588651436 19.2725669516608846 38.9507273586487344
 23.5248859810263156 19.2725669516608633 38.9507273586487344
 23.5248859810263191 29.4266203294996984 38.9507273586487344
 23.5248859810263227 39.5806737073385264 38.9507273586487344
 23.5248859810263156 49.7347270851773473 38.9507273586487344
 23.5248859810263085 59.8887804630161611 38.9507273586487344
 43.8329927367039645 19.2725669516608811 38.9507273586487344
 33.6789393588651365 29.4266203294996913 38.9507273586487344
 33.6789393588651365 39.5806737073385264 38.9507273586487344
 33.6789393588651436 49.7347270851773473 38.9507273586487344
 33.6789393588651365 59.8887804630161611 38.9507273586487344
 -17.0913275303289787 49.7347270851773615 38.9507273586487344
 43.8329927367039573 29.4266203294996913 38.9507273586487344
 -6.9372741524901560 19.2725669516608740 38.9507273586487344
 -6.9372741524901365 29.4266203294997055 38.9507273586487344
 -8.5734578755627382 39.3991504808896025 39.4244150731737761
 -8.5734578755627400 49.5532038587284234 39.4244150731737761
 11.7346488801148983  8.9369903473731451 39.4244150731737761
  1.5805955022760814  8.9369903473731291 39.4244150731737761
  1.5805955022760818 19.0910437252119536 39.4244150731737761
  1.5805955022760809 29.2450971030507816 39.4244150731737761
  1.5805955022760827 39.3991504808896025 39.4244150731737761
  1.5805955022760791 49.5532038587284305 39.4244150731737761
 21.8887022579537351  8.9369903473731398 39.4244150731737761
 11.7346488801149071 19.0910437252119536 39.4244150731737761
 11.7346488801149054 29.2450971030507816 39.4244150731737761
 11.7346488801149071 39.3991504808896025 39.4244150731737761
 11.7346488801149054 49.5532038587284234 39.4244150731737761
 11.7346488801149036 59.7072572365672656 39.4244150731737761
 32.0427556357925454 19.0910437252119607 39.4244150731737761
 21.8887022579537316 19.0910437252119536 39.4244150731737761
 21.8887022579537316 29.2450971030507780 39.4244150731737761
 21.8887022579537351 39.3991504808896025 39.4244150731737761
 21.8887022579537316 49.5532038587284305 39.4244150731737761
 21.8887022579537351 59.7072572365672514 39.4244150731737761
 42.1968090136313663 19.0910437252119642 39.4244150731737761
 32.0427556357925383 29.2450971030507816 39.4244150731737761
 32.0427556357925525 39.3991504808896025 39.4244150731737761
 32.0427556357925312 49.5532038587284234 39.4244150731737761
 32.0427556357925454 59.7072572365672585 39.4244150731737761
 -18.7275112534015662 49.5532038587284376 39.4244150731737761
 42.1968090136313805 29.2450971030507745 39.4244150731737761
 42.1968090136313734 39.3991504808896025 39.4244150731737761
 -8.5734578755627382 29.2450971030507851 39.4244150731737761
 -6.5322985248857393 37.2356187108388852 39.0763597828123466
 -6.5322985248857357 47.3896720886776919 39.0763597828123466
 13.7758082307919114  6.7734585773224110 39.0763597828123466
  3.6217548529530852  6.7734585773223976 39.0763597828123466
  3.6217548529530861 16.9275119551612292 39.0763597828123466
  3.6217548529530816 27.0815653330000430 39.0763597828123466
  3.6217548529530763 37.2356187108388852 39.0763597828123466
  3.6217548529530816 47.3896720886776848 39.0763597828123466
  3.6217548529530887 57.5437254665165199 39.0763597828123466
 13.7758082307919096 16.9275119551612221 39.0763597828123466
 13.7758082307919114 27.0815653330000430 39.0763597828123466
 13.7758082307918990 37.2356187108388852 39.0763597828123466
 13.7758082307918990 47.3896720886777061 39.0763597828123466
 13.7758082307919025 57.5437254665165199 39.0763597828123466
 34.0839149864695585 16.9275119551612399 39.0763597828123466
 23.9298616086307305 16.9275119551612292 39.0763597828123466
 23.9298616086307341 27.0815653330000501 39.0763597828123466
 23.9298616086307305 37.2356187108388852 39.0763597828123466
 23.9298616086307270 47.3896720886777061 39.0763597828123466
 23.9298616086307199 57.5437254665165199 39.0763597828123466
 23.9298616086307270 67.6977788443553550 39.0763597828123466
 34.0839149864695514 27.0815653330000430 39.0763597828123466
 34.0839149864695443 37.2356187108388781 39.0763597828123466
 34.0839149864695514 47.3896720886776919 39.0763597828123466
 34.0839149864695514 57.5437254665165199 39.0763597828123466
 -16.6863519027245530 47.3896720886777061 39.0763597828123466
 44.2379683643083723 27.0815653330000430 39.0763597828123466
 -6.5322985248857472 16.9275119551612292 39.0763597828123466
 -6.5322985248857410 27.0815653330000643 39.0763597828123466
 -8.1606364662215594 36.9935299038339238 39.7896123198932088
 -8.1606364662215629 47.1475832816727589 39.7896123198932088
 12.1474702894560824  6.5313697703174647 39.7896123198932088
  1.9934169116172573  6.5313697703174567 39.7896123198932088
  1.9934169116172580 16.6854231481562785 39.7896123198932088
  1.9934169116172562 26.8394765259951065 39.7896123198932088
  1.9934169116172598 36.9935299038339238 39.7896123198932088
  1.9934169116172615 47.1475832816727447 39.7896123198932088
  1.9934169116172633 57.3016366595115727 39.7896123198932088
 12.1474702894560806 16.6854231481562785 39.7896123198932088
 12.1474702894560806 26.8394765259951065 39.7896123198932088
 12.1474702894560753 36.9935299038339238 39.7896123198932088
 12.1474702894560806 47.1475832816727518 39.7896123198932088
 12.1474702894560771 57.3016366595115727 39.7896123198932088
 32.4555770451337224 16.6854231481562891 39.7896123198932088
 22.3015236672949086 16.6854231481562785 39.7896123198932088
 22.3015236672949051 26.8394765259951029 39.7896123198932088
 22.3015236672949086 36.9935299038339238 39.7896123198932088
 22.3015236672949086 47.1475832816727518 39.7896123198932088
 22.3015236672949122 57.3016366595115656 39.7896123198932088
 22.3015236672948909 67.4556900373504220 39.7896123198932088
 32.4555770451337295 26.8394765259951029 39.7896123198932088
 32.4555770451337224 36.9935299038339238 39.7896123198932088
 32.4555770451337153 47.1475832816727518 39.7896123198932088
 32.4555770451337224 57.3016366595115727 39.7896123198932088
 -18.3146898440603927 47.1475832816727660 39.7896123198932088
 42.6096304229725575 26.8394765259951029 39.7896123198932088
 42.6096304229725504 36.9935299038339238 39.7896123198932088
 -8.1606364662215540 26.8394765259951136 39.7896123198932088
 -8.2873677371637839 36.3423267190487209 37.4760076673599869
 -8.2873677371637822 46.4963800968875418 37.4760076673599869
 12.0207390185138596  5.8801665855322529 37.4760076673599869
  1.8666856406750389  5.8801665855322387 37.4760076673599869
  1.8666856406750396 16.0342199633710614 37.4760076673599869
  1.8666856406750387 26.1882733412098929 37.4760076673599869
  1.8666856406750423 36.3423267190487138 37.4760076673599869
  1.8666856406750387 46.4963800968875418 37.4760076673599869
  1.8666856406750370 56.6504334747263698 37.4760076673599869
 12.0207390185138649 16.0342199633710720 37.4760076673599869
 12.0207390185138649 26.1882733412098929 37.4760076673599869
 12.0207390185138578 36.3423267190487138 37.4760076673599869
 12.0207390185138596 46.4963800968875418 37.4760076673599869
 12.0207390185138614 56.6504334747263627 37.4760076673599869
 32.3288457741915138 16.0342199633710685 37.4760076673599869
 22.1747923963526858 16.0342199633710578 37.4760076673599869
 22.1747923963526858 26.1882733412098858 37.4760076673599869
 22.1747923963526823 36.3423267190487138 37.4760076673599869
 22.1747923963526894 46.4963800968875276 37.4760076673599869
 22.1747923963526752 56.6504334747263698 37.4760076673599869
 22.1747923963526823 66.8044868525651907 37.4760076673599869
 32.3288457741915138 26.1882733412098858 37.4760076673599869
 32.3288457741914925 36.3423267190487067 37.4760076673599869
 32.3288457741915067 46.4963800968875276 37.4760076673599869
 32.3288457741914996 56.6504334747263556 37.4760076673599869
 -18.4414211150026084 46.4963800968875489 37.4760076673599869
 42.4828991520303276 26.1882733412098894 37.4760076673599869
 42.4828991520303205 36.3423267190487138 37.4760076673599869
 -8.2873677371637786 26.1882733412098894 37.4760076673599869
 -9.2181272909587246 37.8674886092756395 37.6546002713123471
 -9.2181272909587229 48.0215419871144604 37.6546002713123471
 11.0899794647189225  7.4053284757591662 37.6546002713123471
  0.9359260868800998  7.4053284757591555 37.6546002713123471
  0.9359260868800998 17.5593818535979764 37.6546002713123471
  0.9359260868801016 27.7134352314368044 37.6546002713123471
  0.9359260868800998 37.8674886092756253 37.6546002713123471
  0.9359260868801016 48.0215419871144604 37.6546002713123471
  0.9359260868801016 58.1755953649532955 37.6546002713123471
 11.0899794647189260 17.5593818535979800 37.6546002713123471
 11.0899794647189260 27.7134352314368044 37.6546002713123471
 11.0899794647189243 37.8674886092756253 37.6546002713123471
 11.0899794647189260 48.0215419871144604 37.6546002713123471
 11.0899794647189296 58.1755953649532884 37.6546002713123471
 31.3980862203965678 17.5593818535979800 37.6546002713123471
 21.2440328425577434 17.5593818535979764 37.6546002713123471
 21.2440328425577505 27.7134352314368044 37.6546002713123471
 21.2440328425577505 37.8674886092756253 37.6546002713123471
 21.2440328425577576 48.0215419871144533 37.6546002713123471
 21.2440328425577434 58.1755953649532813 37.6546002713123471
 41.5521395982353781 17.5593818535979871 37.6546002713123471
 31.3980862203965785 27.7134352314368044 37.6546002713123471
 31.3980862203965643 37.8674886092756253 37.6546002713123471
 31.3980862203965607 48.0215419871144604 37.6546002713123471
 31.3980862203965714 58.1755953649532671 37.6546002713123471
 31.3980862203965678 68.3296487427920880 37.6546002713123471
 41.5521395982353923 27.7134352314368044 37.6546002713123471
 41.5521395982353852 37.8674886092756253 37.6546002713123471
 -9.2181272909587193 27.7134352314368151 37.6546002713123471
 -7.3144328454433873 39.1703840928707336 36.7002128558833576
 -7.3144328454433882 49.3244374707095687 36.7002128558833576
 12.9936739102342536  8.7082239593542781 36.7002128558833576
  2.8396205323954331  8.7082239593542639 36.7002128558833576
  2.8396205323954327 18.8622773371930847 36.7002128558833576
  2.8396205323954309 29.0163307150319127 36.7002128558833576
  2.8396205323954344 39.1703840928707478 36.7002128558833576
  2.8396205323954327 49.3244374707095616 36.7002128558833576
  2.8396205323954362 59.4784908485484038 36.7002128558833576
 12.9936739102342553 18.8622773371930883 36.7002128558833576
 12.9936739102342607 29.0163307150319127 36.7002128558833576
 12.9936739102342571 39.1703840928707336 36.7002128558833576
 12.9936739102342536 49.3244374707095545 36.7002128558833576
 12.9936739102342571 59.4784908485483967 36.7002128558833576
 33.3017806659118989 18.8622773371931025 36.7002128558833576
 23.1477272880730780 18.8622773371930847 36.7002128558833576
 23.1477272880730744 29.0163307150319127 36.7002128558833576
 23.1477272880730780 39.1703840928707336 36.7002128558833576
 23.1477272880730780 49.3244374707095616 36.7002128558833576
 23.1477272880730780 59.4784908485483825 36.7002128558833576
 43.4558340437507127 18.8622773371931061 36.7002128558833576
 33.3017806659119060 29.0163307150319092 36.7002128558833576
 33.3017806659119060 39.1703840928707336 36.7002128558833576
 33.3017806659118989 49.3244374707095545 36.7002128558833576
 33.3017806659119060 59.4784908485483967 36.7002128558833576
 -17.4684862232822127 49.3244374707095616 36.7002128558833576
 43.4558340437507198 29.0163307150319092 36.7002128558833576
 -7.3144328454433873 18.8622773371930883 36.7002128558833576
 -7.3144328454433811 29.0163307150319163 36.7002128558833576
 -6.2999219638534179 37.6770223021303536 36.6314789156789615
 -6.2999219638534214 47.8310756799691887 36.6314789156789615
 14.0081847918242186  7.2148621686138954 36.6314789156789615
  3.8541314139853977  7.2148621686138856 36.6314789156789615
  3.8541314139853986 17.3689155464527154 36.6314789156789615
  3.8541314139853959 27.5229689242915363 36.6314789156789615
  3.8541314139853995 37.6770223021303536 36.6314789156789615
  3.8541314139854030 47.8310756799691816 36.6314789156789615
  3.8541314139853959 57.9851290578080096 36.6314789156789615
 14.0081847918242204 17.3689155464527083 36.6314789156789615
 14.0081847918242239 27.5229689242915292 36.6314789156789615
 14.0081847918242222 37.6770223021303607 36.6314789156789615
 14.0081847918242151 47.8310756799691816 36.6314789156789615
 14.0081847918242239 57.9851290578080096 36.6314789156789615
 34.3162915475018551 17.3689155464527190 36.6314789156789615
 24.1622381696630484 17.3689155464527083 36.6314789156789615
 24.1622381696630484 27.5229689242915363 36.6314789156789615
 24.1622381696630484 37.6770223021303536 36.6314789156789615
 24.1622381696630519 47.8310756799691745 36.6314789156789615
 24.1622381696630484 57.9851290578079954 36.6314789156789615
 24.1622381696630413 68.1391824356468589 36.6314789156789615
 34.3162915475018622 27.5229689242915292 36.6314789156789615
 34.3162915475018622 37.6770223021303536 36.6314789156789615
 34.3162915475018622 47.8310756799691745 36.6314789156789615
 34.3162915475018622 57.9851290578080096 36.6314789156789615
 -16.4539753416922565 47.8310756799691958 36.6314789156789615
 44.4703449253406831 27.5229689242915256 36.6314789156789615
 -6.2999219638534205 17.3689155464527083 36.6314789156789615
 -6.2999219638534152 27.5229689242915434 36.6314789156789615
 -7.9321177164995813 36.6485562191656271 35.0308677901059085
 -7.9321177164995813 46.8026095970044480 35.0308677901059085
 12.3759890391780623  6.1863960856491698 35.0308677901059085
  2.2219356613392409  6.1863960856491609 35.0308677901059085
  2.2219356613392396 16.3404494634879853 35.0308677901059085
  2.2219356613392396 26.4945028413268133 35.0308677901059085
  2.2219356613392414 36.6485562191656271 35.0308677901059085
  2.2219356613392467 46.8026095970044551 35.0308677901059085
  2.2219356613392449 56.9566629748432831 35.0308677901059085
 12.3759890391780658 16.3404494634879853 35.0308677901059085
 12.3759890391780623 26.4945028413268133 35.0308677901059085
 12.3759890391780605 36.6485562191656342 35.0308677901059085
 12.3759890391780658 46.8026095970044480 35.0308677901059085
 12.3759890391780658 56.9566629748432831 35.0308677901059085
 32.6840957948557076 16.3404494634879924 35.0308677901059085
 22.5300424170168903 16.3404494634879853 35.0308677901059085
 22.5300424170168867 26.4945028413268133 35.0308677901059085
 22.5300424170168938 36.6485562191656271 35.0308677901059085
 22.5300424170168938 46.8026095970044480 35.0308677901059085
 22.5300424170168903 56.9566629748432689 35.0308677901059085
 22.5300424170168831 67.1107163526821040 35.0308677901059085
 32.6840957948557005 26.4945028413268062 35.0308677901059085
 32.6840957948557076 36.6485562191656271 35.0308677901059085
 32.6840957948557076 46.8026095970044480 35.0308677901059085
 32.6840957948557076 56.9566629748432831 35.0308677901059085
 -18.0861710943384040 46.8026095970044551 35.0308677901059085
 42.8381491726945285 26.4945028413268062 35.0308677901059085
 42.8381491726945285 36.6485562191656271 35.0308677901059085
 -7.9321177164995671 26.4945028413268098 35.0308677901059085
 -8.9538670429232905 38.1347376147623507 35.1140873260427995
 -8.9538670429232887 48.2887909926011645 35.1140873260427995
 11.3542397127543602  7.6725774812458738 35.1140873260427995
  1.2001863349155366  7.6725774812458623 35.1140873260427995
  1.2001863349155348 17.8266308590846911 35.1140873260427995
  1.2001863349155357 27.9806842369235156 35.1140873260427995
  1.2001863349155375 38.1347376147623436 35.1140873260427995
  1.2001863349155357 48.2887909926011503 35.1140873260427995
  1.2001863349155357 58.4428443704399925 35.1140873260427995
 11.3542397127543602 17.8266308590846911 35.1140873260427995
 11.3542397127543619 27.9806842369235120 35.1140873260427995
 11.3542397127543548 38.1347376147623436 35.1140873260427995
 11.3542397127543531 48.2887909926011503 35.1140873260427995
 11.3542397127543602 58.4428443704399854 35.1140873260427995
 31.6623464684320091 17.8266308590847018 35.1140873260427995
 21.5082930905931811 17.8266308590846911 35.1140873260427995
 21.5082930905931775 27.9806842369235156 35.1140873260427995
 21.5082930905931846 38.1347376147623436 35.1140873260427995
 21.5082930905931846 48.2887909926011503 35.1140873260427995
 21.5082930905931811 58.4428443704399712 35.1140873260427995
 41.8163998462708264 17.8266308590847053 35.1140873260427995
 31.6623464684320055 27.9806842369235014 35.1140873260427995
 31.6623464684319913 38.1347376147623294 35.1140873260427995
 31.6623464684320020 48.2887909926011503 35.1140873260427995
 31.6623464684320055 58.4428443704399783 35.1140873260427995
 -19.1079204207621167 48.2887909926011858 35.1140873260427995
 41.8163998462708264 27.9806842369235120 35.1140873260427995
 41.8163998462708264 38.1347376147623436 35.1140873260427995
 -8.9538670429232727 27.9806842369235262 35.1140873260427995
 -6.0218426639896272 38.0130234157967166 34.1331969288767993
 -6.0218426639896272 48.1670767936355517 34.1331969288767993
 14.2862640916880146  7.5508632822802690 34.1331969288767993
  4.1322107138491955  7.5508632822802477 34.1331969288767993
  4.1322107138491955 17.7049166601190677 34.1331969288767993
  4.1322107138491972 27.8589700379578993 34.1331969288767993
  4.1322107138491919 38.0130234157967237 34.1331969288767993
  4.1322107138491937 48.1670767936355517 34.1331969288767993
  4.1322107138491972 58.3211301714743868 34.1331969288767993
 14.2862640916880217 17.7049166601190713 34.1331969288767993
 14.2862640916880217 27.8589700379578957 34.1331969288767993
 14.2862640916880093 38.0130234157967308 34.1331969288767993
 14.2862640916880128 48.1670767936355446 34.1331969288767993
 14.2862640916880217 58.3211301714743584 34.1331969288767993
 34.5943708473656599 17.7049166601190819 34.1331969288767993
 24.4403174695268461 17.7049166601190677 34.1331969288767993
 24.4403174695268461 27.8589700379578957 34.1331969288767993
 24.4403174695268390 38.0130234157967166 34.1331969288767993
 24.4403174695268461 48.1670767936355517 34.1331969288767993
 24.4403174695268461 58.3211301714743584 34.1331969288767993
 24.4403174695268248 68.4751835493132148 34.1331969288767993
 34.5943708473656670 27.8589700379578957 34.1331969288767993
 34.5943708473656670 38.0130234157967237 34.1331969288767993
 34.5943708473656599 48.1670767936355517 34.1331969288767993
 34.5943708473656670 58.3211301714743797 34.1331969288767993
 -16.1758960418284516 48.1670767936355588 34.1331969288767993
 44.7484242252044879 27.8589700379578957 34.1331969288767993
 -6.0218426639896263 17.7049166601190748 34.1331969288767993
 -6.0218426639896228 27.8589700379579135 34.1331969288767993
 -7.0431342180357897 39.4968760069598304 34.2137465740011208
 -7.0431342180357941 49.6509293847986655 34.2137465740011208
 13.2649725376418548  9.0347158734433712 34.2137465740011208
  3.1109191598030312  9.0347158734433641 34.2137465740011208
  3.1109191598030312 19.1887692512821815 34.2137465740011208
  3.1109191598030304 29.3428226291210095 34.2137465740011208
  3.1109191598030286 39.4968760069598446 34.2137465740011208
  3.1109191598030286 49.6509293847986655 34.2137465740011208
  3.1109191598030321 59.8049827626375006 34.2137465740011208
 13.2649725376418512 19.1887692512821886 34.2137465740011208
 13.2649725376418566 29.3428226291210024 34.2137465740011208
 13.2649725376418512 39.4968760069598375 34.2137465740011208
 13.2649725376418530 49.6509293847986584 34.2137465740011208
 13.2649725376418495 59.8049827626374721 34.2137465740011208
 33.5730792933195090 19.1887692512821886 34.2137465740011208
 23.4190259154806775 19.1887692512821815 34.2137465740011208
 23.4190259154806775 29.3428226291210095 34.2137465740011208
 23.4190259154806739 39.4968760069598375 34.2137465740011208
 23.4190259154806810 49.6509293847986655 34.2137465740011208
 23.4190259154806775 59.8049827626374935 34.2137465740011208
 43.7271326711583228 19.1887692512821886 34.2137465740011208
 33.5730792933195019 29.3428226291210095 34.2137465740011208
 33.5730792933195090 39.4968760069598375 34.2137465740011208
 33.5730792933195019 49.6509293847986584 34.2137465740011208
 33.5730792933195090 59.8049827626374721 34.2137465740011208
 -17.1971875958746061 49.6509293847986655 34.2137465740011208
 43.7271326711583228 29.3428226291210024 34.2137465740011208
 -7.0431342180357985 19.1887692512821815 34.2137465740011208
 -7.0431342180357932 29.3428226291210201 34.2137465740011208
 -8.5878210159838080 38.4616723525978017 32.6709995206087314
 -8.5878210159838080 48.6157257304366226 32.6709995206087314
 11.7202857396938338  7.9995122190813479 32.6709995206087314
  1.5662323618550125  7.9995122190813248 32.6709995206087314
  1.5662323618550111 18.1535655969201528 32.6709995206087314
  1.5662323618550111 28.3076189747589773 32.6709995206087314
  1.5662323618550111 38.4616723525977946 32.6709995206087314
  1.5662323618550111 48.6157257304366297 32.6709995206087314
  1.5662323618550147 58.7697791082754577 32.6709995206087314
 11.7202857396938338 18.1535655969201528 32.6709995206087314
 11.7202857396938356 28.3076189747589737 32.6709995206087314
 11.7202857396938285 38.4616723525978017 32.6709995206087314
 11.7202857396938303 48.6157257304366297 32.6709995206087314
 11.7202857396938356 58.7697791082754577 32.6709995206087314
 32.0283924953714774 18.1535655969201599 32.6709995206087314
 21.8743391175326529 18.1535655969201457 32.6709995206087314
 21.8743391175326600 28.3076189747589737 32.6709995206087314
 21.8743391175326494 38.4616723525978017 32.6709995206087314
 21.8743391175326565 48.6157257304366368 32.6709995206087314
 21.8743391175326529 58.7697791082754577 32.6709995206087314
 42.1824458732102983 18.1535655969201493 32.6709995206087314
 32.0283924953714774 28.3076189747589737 32.6709995206087314
 32.0283924953714845 38.4616723525978017 32.6709995206087314
 32.0283924953714774 48.6157257304366226 32.6709995206087314
 32.0283924953714703 58.7697791082754435 32.6709995206087314
 -18.7418743938226449 48.6157257304366226 32.6709995206087314
 42.1824458732103125 28.3076189747589702 32.6709995206087314
 42.1824458732102983 38.4616723525978017 32.6709995206087314
 -8.5878210159838062 28.3076189747589915 32.6709995206087314
 -7.0174936565777655 38.5386309842686572 32.0205901650752409
 -7.0174936565777646 48.6926843621074923 32.0205901650752409
 13.2906130990998790  8.0764708507522052 32.0205901650752409
  3.1365597212610581  8.0764708507521874 32.0205901650752409
  3.1365597212610599 18.2305242285910083 32.0205901650752409
  3.1365597212610581 28.3845776064298398 32.0205901650752409
  3.1365597212610581 38.5386309842686714 32.0205901650752409
  3.1365597212610581 48.6926843621074923 32.0205901650752409
  3.1365597212610616 58.8467377399463274 32.0205901650752409
 13.2906130990998843 18.2305242285910118 32.0205901650752409
 13.2906130990998843 28.3845776064298398 32.0205901650752409
 13.2906130990998719 38.5386309842686643 32.0205901650752409
 13.2906130990998790 48.6926843621074781 32.0205901650752409
 13.2906130990998754 58.8467377399463132 32.0205901650752409
 33.5987198547775208 18.2305242285910154 32.0205901650752409
 23.4446664769387070 18.2305242285910083 32.0205901650752409
 23.4446664769387070 28.3845776064298363 32.0205901650752409
 23.4446664769387070 38.5386309842686643 32.0205901650752409
 23.4446664769387034 48.6926843621074923 32.0205901650752409
 23.4446664769386999 58.8467377399463132 32.0205901650752409
 43.7527732326163488 18.2305242285910261 32.0205901650752409
 33.5987198547775350 28.3845776064298363 32.0205901650752409
 33.5987198547775279 38.5386309842686572 32.0205901650752409
 33.5987198547775208 48.6926843621074852 32.0205901650752409
 33.5987198547775421 58.8467377399463132 32.0205901650752409
 -17.1715470344165908 48.6926843621074852 32.0205901650752409
 43.7527732326163417 28.3845776064298363 32.0205901650752409
 -7.0174936565777708 18.2305242285910118 32.0205901650752409
 -7.0174936565777655 28.3845776064298434 32.0205901650752409
 -7.6180147155795677 37.0536136351536243 32.5941193415438732
 -7.6180147155795641 47.2076670129924452 32.5941193415438732
 12.6900920400980795  6.5914535016371634 32.5941193415438732
  2.5360386622592541  6.5914535016371536 32.5941193415438732
  2.5360386622592550 16.7455068794759825 32.5941193415438732
  2.5360386622592550 26.8995602573147963 32.5941193415438732
  2.5360386622592497 37.0536136351536385 32.5941193415438732
  2.5360386622592515 47.2076670129924594 32.5941193415438732
  2.5360386622592586 57.3617203908312874 32.5941193415438732
 12.6900920400980759 16.7455068794759789 32.5941193415438732
 12.6900920400980777 26.8995602573147963 32.5941193415438732
 12.6900920400980723 37.0536136351536385 32.5941193415438732
 12.6900920400980830 47.2076670129924381 32.5941193415438732
 12.6900920400980830 57.3617203908312732 32.5941193415438732
 32.9981987957757212 16.7455068794759931 32.5941193415438732
 22.8441454179369003 16.7455068794759789 32.5941193415438732
 22.8441454179368968 26.8995602573148105 32.5941193415438732
 22.8441454179369003 37.0536136351536385 32.5941193415438732
 22.8441454179368968 47.2076670129924594 32.5941193415438732
 22.8441454179368968 57.3617203908312732 32.5941193415438732
 22.8441454179368968 67.5157737686701154 32.5941193415438732
 32.9981987957757354 26.8995602573148034 32.5941193415438732
 32.9981987957757212 37.0536136351536243 32.5941193415438732
 32.9981987957757212 47.2076670129924452 32.5941193415438732
 32.9981987957757283 57.3617203908312661 32.5941193415438732
 -17.7720680934183903 47.2076670129924594 32.5941193415438732
 43.1522521736145421 26.8995602573147927 32.5941193415438732
 43.1522521736145421 37.0536136351536314 32.5941193415438732
 -7.6180147155795668 26.8995602573148105 32.5941193415438732
 -2.5304705644896721 33.9308342750809331 39.5116309339985818
 -2.5304705644896739 44.0848876529197469 39.5116309339985818
 -2.5304705644896721 54.2389410307585820 39.5116309339985818
  7.6235828133491488  3.4686741415644482 39.5116309339985818
  7.6235828133491470 13.6227275194032718 39.5116309339985818
  7.6235828133491479 23.7767808972421015 39.5116309339985818
  7.6235828133491523 33.9308342750809189 39.5116309339985818
  7.6235828133491506 44.0848876529197540 39.5116309339985818
  7.6235828133491523 54.2389410307585820 39.5116309339985818
 17.7776361911879697 13.6227275194032735 39.5116309339985818
 17.7776361911879768 23.7767808972420909 39.5116309339985818
 17.7776361911879732 33.9308342750809189 39.5116309339985818
 17.7776361911879697 44.0848876529197398 39.5116309339985818
 17.7776361911879661 54.2389410307585678 39.5116309339985818
 17.7776361911879732 64.3929944085973887 39.5116309339985818
 27.9316895690267906 13.6227275194032700 39.5116309339985818
 27.9316895690267870 23.7767808972420980 39.5116309339985818
 27.9316895690267941 33.9308342750809189 39.5116309339985818
 27.9316895690267870 44.0848876529197469 39.5116309339985818
 27.9316895690267906 54.2389410307585678 39.5116309339985818
 27.9316895690267870 64.3929944085974029 39.5116309339985818
 38.0857429468656221 23.7767808972420909 39.5116309339985818
 38.0857429468656221 33.9308342750809189 39.5116309339985818
 38.0857429468656079 44.0848876529197469 39.5116309339985818
 -12.6845239423284895 33.9308342750809189 39.5116309339985818
 -12.6845239423284966 44.0848876529197540 39.5116309339985818
 48.2397963247044359 23.7767808972420909 39.5116309339985818
 -2.5304705644896743 13.6227275194032735 39.5116309339985818
 -2.5304705644896703 23.7767808972421051 39.5116309339985818
 -2.5023410741121328 32.5349496603696835 39.0701756187841411
 -2.5023410741121364 42.6890030382084973 39.0701756187841411
 -2.5023410741121310 52.8430564160473182 39.0701756187841411
 -12.6563944519509519 52.8430564160473040 39.0701756187841411
  7.6517123037266908 12.2268429046920204 39.0701756187841411
  7.6517123037266899 22.3808962825308484 39.0701756187841411
  7.6517123037266916 32.5349496603696693 39.0701756187841411
  7.6517123037266899 42.6890030382085044 39.0701756187841411
  7.6517123037266970 52.8430564160473182 39.0701756187841411
 17.8057656815655179 12.2268429046920204 39.0701756187841411
 17.8057656815655179 22.3808962825308413 39.0701756187841411
 17.8057656815655108 32.5349496603696764 39.0701756187841411
 17.8057656815655037 42.6890030382085044 39.0701756187841411
 17.8057656815655179 52.8430564160473182 39.0701756187841411
 17.8057656815655143 62.9971097938861391 39.0701756187841411
 27.9598190594043317 12.2268429046920186 39.0701756187841411
 27.9598190594043352 22.3808962825308519 39.0701756187841411
 27.9598190594043459 32.5349496603696764 39.0701756187841411
 27.9598190594043352 42.6890030382084973 39.0701756187841411
 27.9598190594043317 52.8430564160473182 39.0701756187841411
 27.9598190594043317 62.9971097938861533 39.0701756187841411
 38.1138724372431525 22.3808962825308448 39.0701756187841411
 38.1138724372431597 32.5349496603696764 39.0701756187841411
 38.1138724372431454 42.6890030382084973 39.0701756187841411
 -12.6563944519509466 32.5349496603696764 39.0701756187841411
 -12.6563944519509555 42.6890030382085044 39.0701756187841411
 48.2679258150819805 22.3808962825308342 39.0701756187841411
 -2.5023410741121332 12.2268429046920293 39.0701756187841411
 -2.5023410741121266 22.3808962825308591 39.0701756187841411
 -3.1175880774485485 32.3560781445812609 37.6721483173165055
 -3.1175880774485432 42.5101315224200818 37.6721483173165055
 -3.1175880774485467 52.6641849002589169 37.6721483173165055
 -13.2716414552873658 52.6641849002589026 37.6721483173165055
  7.0364653003902760 12.0479713889036120 37.6721483173165055
  7.0364653003902760 22.2020247667424400 37.6721483173165055
  7.0364653003902777 32.3560781445812609 37.6721483173165055
  7.0364653003902760 42.5101315224200960 37.6721483173165055
  7.0364653003902831 52.6641849002589097 37.6721483173165055
 17.1905186782290968 12.0479713889036137 37.6721483173165055
 17.1905186782291040 22.2020247667424329 37.6721483173165055
 17.1905186782290968 32.3560781445812609 37.6721483173165055
 17.1905186782290968 42.5101315224200818 37.6721483173165055
 17.1905186782290897 52.6641849002589026 37.6721483173165055
 17.1905186782290897 62.8182382780977520 37.6721483173165055
 27.3445720560679142 12.0479713889036084 37.6721483173165055
 27.3445720560679248 22.2020247667424400 37.6721483173165055
 27.3445720560679213 32.3560781445812609 37.6721483173165055
 27.3445720560679248 42.5101315224200960 37.6721483173165055
 27.3445720560679213 52.6641849002589169 37.6721483173165055
 27.3445720560679142 62.8182382780977449 37.6721483173165055
 37.4986254339067528 22.2020247667424329 37.6721483173165055
 37.4986254339067457 32.3560781445812609 37.6721483173165055
 37.4986254339067386 42.5101315224200818 37.6721483173165055
 37.4986254339067528 52.6641849002589026 37.6721483173165055
 -13.2716414552873658 42.5101315224200889 37.6721483173165055
 47.6526788117455595 22.2020247667424329 37.6721483173165055
 -3.1175880774485458 12.0479713889036173 37.6721483173165055
 -3.1175880774485396 22.2020247667424435 37.6721483173165055
 -2.2622721167608599 32.9906712635905350 36.5660318129359609
 -2.2622721167608599 43.1447246414293559 36.5660318129359609
 -2.2622721167608582 53.2987780192681981 36.5660318129359609
 -12.4163254945996826 53.2987780192681839 36.5660318129359609
  7.8917812610779619 12.6825645079128915 36.5660318129359609
  7.8917812610779645 22.8366178857517141 36.5660318129359609
  7.8917812610779645 32.9906712635905350 36.5660318129359609
  7.8917812610779627 43.1447246414293630 36.5660318129359609
  7.8917812610779627 53.2987780192681839 36.5660318129359609
 18.0458346389167872 12.6825645079128897 36.5660318129359609
 18.0458346389167836 22.8366178857517106 36.5660318129359609
 18.0458346389167836 32.9906712635905350 36.5660318129359609
 18.0458346389167872 43.1447246414293559 36.5660318129359609
 18.0458346389167872 53.2987780192681768 36.5660318129359609
 18.0458346389167730 63.4528313971070332 36.5660318129359609
 28.1998880167556010 12.6825645079128879 36.5660318129359609
 28.1998880167556010 22.8366178857517141 36.5660318129359609
 28.1998880167556152 32.9906712635905279 36.5660318129359609
 28.1998880167556152 43.1447246414293559 36.5660318129359609
 28.1998880167556081 53.2987780192681839 36.5660318129359609
 28.1998880167556010 63.4528313971070190 36.5660318129359609
 38.3539413945944361 22.8366178857517106 36.5660318129359609
 38.3539413945944290 32.9906712635905350 36.5660318129359609
 38.3539413945944148 43.1447246414293630 36.5660318129359609
 -12.4163254945996773 32.9906712635905421 36.5660318129359609
 -12.4163254945996879 43.1447246414293701 36.5660318129359609
 48.5079947724332641 22.8366178857517177 36.5660318129359609
 -2.2622721167608661 12.6825645079128879 36.5660318129359609
 -2.2622721167608502 22.8366178857517177 36.5660318129359609
 -2.8350659590048224 32.6735957021481624 35.1793920666560993
 -2.8350659590048242 42.8276490799869833 35.1793920666560993
 -2.8350659590048242 52.9817024578258184 35.1793920666560993
 -12.9891193368436522 52.9817024578258042 35.1793920666560993
  7.3189874188339985 12.3654889464705136 35.1793920666560993
  7.3189874188339976 22.5195423243093416 35.1793920666560993
  7.3189874188339985 32.6735957021481624 35.1793920666560993
  7.3189874188339985 42.8276490799869833 35.1793920666560993
  7.3189874188340021 52.9817024578258184 35.1793920666560993
 17.4730407966728229 12.3654889464705171 35.1793920666560993
 17.4730407966728194 22.5195423243093416 35.1793920666560993
 17.4730407966728194 32.6735957021481624 35.1793920666560993
 17.4730407966728194 42.8276490799869975 35.1793920666560993
 17.4730407966728194 52.9817024578258184 35.1793920666560993
 17.4730407966728229 63.1357558356646322 35.1793920666560993
 27.6270941745116438 12.3654889464705153 35.1793920666560993
 27.6270941745116474 22.5195423243093487 35.1793920666560993
 27.6270941745116474 32.6735957021481624 35.1793920666560993
 27.6270941745116545 42.8276490799869833 35.1793920666560993
 27.6270941745116509 52.9817024578258042 35.1793920666560993
 27.6270941745116332 63.1357558356646535 35.1793920666560993
 37.7811475523504683 22.5195423243093416 35.1793920666560993
 37.7811475523504754 32.6735957021481624 35.1793920666560993
 37.7811475523504541 42.8276490799869833 35.1793920666560993
 -12.9891193368436468 32.6735957021481624 35.1793920666560993
 -12.9891193368436539 42.8276490799869904 35.1793920666560993
 47.9352009301892963 22.5195423243093416 35.1793920666560993
 -2.8350659590048330 12.3654889464705153 35.1793920666560993
 -2.8350659590048135 22.5195423243093522 35.1793920666560993
 -1.9889674103899981 33.3162239328254230 34.0721968544827192
 -1.9889674103899964 43.4702773106642439 34.0721968544827192
 -1.9889674103900035 53.6243306885030933 34.0721968544827192
 -12.1430207882288208 53.6243306885030719 34.0721968544827192
  8.1650859674488245 13.0081171771477795 34.0721968544827192
  8.1650859674488245 23.1621705549865986 34.0721968544827192
  8.1650859674488210 33.3162239328254373 34.0721968544827192
  8.1650859674488263 43.4702773106642653 34.0721968544827192
  8.1650859674488210 53.6243306885030862 34.0721968544827192
 18.3191393452876490 13.0081171771477759 34.0721968544827192
 18.3191393452876561 23.1621705549866022 34.0721968544827192
 18.3191393452876312 33.3162239328254302 34.0721968544827192
 18.3191393452876383 43.4702773106642439 34.0721968544827192
 18.3191393452876312 53.6243306885030790 34.0721968544827192
 18.3191393452876419 63.7783840663419141 34.0721968544827192
 28.4731927231264734 13.0081171771477742 34.0721968544827192
 28.4731927231264663 23.1621705549866022 34.0721968544827192
 28.4731927231264628 33.3162239328254230 34.0721968544827192
 28.4731927231264663 43.4702773106642582 34.0721968544827192
 28.4731927231264592 53.6243306885030790 34.0721968544827192
 28.4731927231264734 63.7783840663419070 34.0721968544827192
 38.6272461009652943 23.1621705549865986 34.0721968544827192
 38.6272461009652801 33.3162239328254230 34.0721968544827192
 38.6272461009652943 43.4702773106642439 34.0721968544827192
 -12.1430207882288279 33.3162239328254302 34.0721968544827192
 -12.1430207882288190 43.4702773106642582 34.0721968544827192
 48.7812994788041152 23.1621705549865986 34.0721968544827192
 -1.9889674103899999 13.0081171771477813 34.0721968544827192
 -1.9889674103899955 23.1621705549866128 34.0721968544827192
 -2.5372464518164239 33.0106939542915470 32.7511985067007316
 -2.5372464518164204 43.1647473321303750 32.7511985067007316
 -2.5372464518164257 53.3188007099692101 32.7511985067007316
 -12.6912998296552466 53.3188007099691887 32.7511985067007316
  7.6168069260224023 12.7025871986138910 32.7511985067007316
  7.6168069260223987 22.8566405764527119 32.7511985067007316
  7.6168069260223987 33.0106939542915470 32.7511985067007316
  7.6168069260223987 43.1647473321303607 32.7511985067007316
  7.6168069260224023 53.3188007099692030 32.7511985067007316
 17.7708603038612303 12.7025871986138910 32.7511985067007316
 17.7708603038612267 22.8566405764527119 32.7511985067007316
 17.7708603038612196 33.0106939542915399 32.7511985067007316
 17.7708603038612196 43.1647473321303750 32.7511985067007316
 17.7708603038612196 53.3188007099691887 32.7511985067007316
 17.7708603038612232 63.4728540878080167 32.7511985067007316
 27.9249136817000547 12.7025871986138874 32.7511985067007316
 27.9249136817000547 22.8566405764527190 32.7511985067007316
 27.9249136817000512 33.0106939542915470 32.7511985067007316
 27.9249136817000476 43.1647473321303607 32.7511985067007316
 27.9249136817000405 53.3188007099691816 32.7511985067007316
 27.9249136817000476 63.4728540878080167 32.7511985067007316
 38.0789670595388756 22.8566405764527119 32.7511985067007316
 38.0789670595388543 33.0106939542915399 32.7511985067007316
 38.0789670595388685 43.1647473321303607 32.7511985067007316
 -12.6912998296552413 33.0106939542915541 32.7511985067007316
 -12.6912998296552448 43.1647473321303750 32.7511985067007316
 48.2330204373776894 22.8566405764527154 32.7511985067007316
 -2.5372464518164279 12.7025871986138981 32.7511985067007316
 -2.5372464518164222 22.8566405764527261 32.7511985067007316
 -2.2403091853774768 33.9750095946781343 40.5151803301504927
 -2.2403091853774804 44.1290629725169623 40.5151803301504927
 -2.2403091853774804 54.2831163503557832 40.5151803301504927
  7.9137441924613414  3.5128494611616596 40.5151803301504927
  7.9137441924613441 13.6669028390004836 40.5151803301504927
  7.9137441924613450 23.8209562168393063 40.5151803301504927
  7.9137441924613423 33.9750095946781272 40.5151803301504927
  7.9137441924613423 44.1290629725169481 40.5151803301504927
  7.9137441924613476 54.2831163503557903 40.5151803301504927
 18.0677975703001614 13.6669028390004890 40.5151803301504927
 18.0677975703001685 23.8209562168393063 40.5151803301504927
 18.0677975703001650 33.9750095946781272 40.5151803301504927
 18.0677975703001543 44.1290629725169623 40.5151803301504927
 18.0677975703001685 54.2831163503557832 40.5151803301504927
 18.0677975703001721 64.4371697281946041 40.5151803301504927
 28.2218509481389930 13.6669028390004819 40.5151803301504927
 28.2218509481389930 23.8209562168393134 40.5151803301504927
 28.2218509481389930 33.9750095946781272 40.5151803301504927
 28.2218509481390072 44.1290629725169552 40.5151803301504927
 28.2218509481389930 54.2831163503557690 40.5151803301504927
 28.2218509481389823 64.4371697281946183 40.5151803301504927
 38.3759043259778139 23.8209562168392992 40.5151803301504927
 38.3759043259778068 33.9750095946781272 40.5151803301504927
 38.3759043259778139 44.1290629725169481 40.5151803301504927
 -12.3943625632162959 33.9750095946781343 40.5151803301504927
 -12.3943625632162977 44.1290629725169765 40.5151803301504927
 48.5299577038166419 23.8209562168393063 40.5151803301504927
 -2.2403091853774821 13.6669028390004836 40.5151803301504927
 -2.2403091853774786 23.8209562168393170 40.5151803301504927
 -1.8602474635707349 34.5036470184191018 38.9507273586487344
 -1.8602474635707367 44.6577003962579369 38.9507273586487344
 -1.8602474635707367 54.8117537740967578 38.9507273586487344
  8.2938059142680860  4.0414868849026302 38.9507273586487344
  8.2938059142680842 14.1955402627414529 38.9507273586487344
  8.2938059142680860 24.3495936405802738 38.9507273586487344
  8.2938059142680878 34.5036470184191018 38.9507273586487344
  8.2938059142680878 44.6577003962579226 38.9507273586487344
  8.2938059142680842 54.8117537740967649 38.9507273586487344
 18.4478592921069122 14.1955402627414546 38.9507273586487344
 18.4478592921069122 24.3495936405802738 38.9507273586487344
 18.4478592921069051 34.5036470184191018 38.9507273586487344
 18.4478592921069087 44.6577003962579226 38.9507273586487344
 18.4478592921069016 54.8117537740967578 38.9507273586487344
 18.4478592921069193 64.9658071519355644 38.9507273586487344
 28.6019126699457331 14.1955402627414529 38.9507273586487344
 28.6019126699457296 24.3495936405802809 38.9507273586487344
 28.6019126699457331 34.5036470184191018 38.9507273586487344
 28.6019126699457402 44.6577003962579226 38.9507273586487344
 28.6019126699457260 54.8117537740967506 38.9507273586487344
 28.6019126699457367 64.9658071519355644 38.9507273586487344
 38.7559660477845469 24.3495936405802738 38.9507273586487344
 38.7559660477845540 34.5036470184191018 38.9507273586487344
 38.7559660477845469 44.6577003962579226 38.9507273586487344
 -12.0143008414095576 34.5036470184191018 38.9507273586487344
 -12.0143008414095576 44.6577003962579226 38.9507273586487344
 48.9100194256233749 24.3495936405802738 38.9507273586487344
 -1.8602474635707433 14.1955402627414546 38.9507273586487344
 -1.8602474635707260 24.3495936405802951 38.9507273586487344
 -3.4964311866433277 34.3221237919701849 39.4244150731737761
 -3.4964311866433260 44.4761771698090129 39.4244150731737761
 -3.4964311866433295 54.6302305476478338 39.4244150731737761
  6.6576221911954940  3.8599636584537182 39.4244150731737761
  6.6576221911954931 14.0140170362925431 39.4244150731737761
  6.6576221911954940 24.1680704141313640 39.4244150731737761
  6.6576221911954949 34.3221237919701849 39.4244150731737761
  6.6576221911954914 44.4761771698090129 39.4244150731737761
  6.6576221911954967 54.6302305476478480 39.4244150731737761
 16.8116755690343211 14.0140170362925449 39.4244150731737761
 16.8116755690343211 24.1680704141313640 39.4244150731737761
 16.8116755690343140 34.3221237919701920 39.4244150731737761
 16.8116755690343140 44.4761771698090200 39.4244150731737761
 16.8116755690343140 54.6302305476478409 39.4244150731737761
 16.8116755690343105 64.7842839254866760 39.4244150731737761
 26.9657289468731385 14.0140170362925449 39.4244150731737761
 26.9657289468731420 24.1680704141313711 39.4244150731737761
 26.9657289468731349 34.3221237919701920 39.4244150731737761
 26.9657289468731420 44.4761771698090200 39.4244150731737761
 26.9657289468731278 54.6302305476478409 39.4244150731737761
 26.9657289468731349 64.7842839254866760 39.4244150731737761
 37.1197823247119629 24.1680704141313676 39.4244150731737761
 37.1197823247119629 34.3221237919701849 39.4244150731737761
 37.1197823247119629 44.4761771698090200 39.4244150731737761
 -13.6504845644821486 34.3221237919701849 39.4244150731737761
 -13.6504845644821486 44.4761771698090342 39.4244150731737761
 47.2738357025507838 24.1680704141313569 39.4244150731737761
 -3.4964311866433322 14.0140170362925431 39.4244150731737761
 -3.4964311866433269 24.1680704141313711 39.4244150731737761
 -1.4552718359663288 32.1585920219194605 39.0763597828123466
 -1.4552718359663235 42.3126453997582956 39.0763597828123466
 -1.4552718359663288 52.4666987775971236 39.0763597828123466
 -11.6093252138051515 52.4666987775971094 39.0763597828123466
  8.6987815418724992 11.8504852662418099 39.0763597828123466
  8.6987815418724992 22.0045386440806325 39.0763597828123466
  8.6987815418724956 32.1585920219194605 39.0763597828123466
  8.6987815418724974 42.3126453997582814 39.0763597828123466
  8.6987815418724956 52.4666987775971165 39.0763597828123466
 18.8528349197113201 11.8504852662418152 39.0763597828123466
 18.8528349197113201 22.0045386440806325 39.0763597828123466
 18.8528349197113201 32.1585920219194605 39.0763597828123466
 18.8528349197113201 42.3126453997582814 39.0763597828123466
 18.8528349197113094 52.4666987775971165 39.0763597828123466
 18.8528349197113272 62.6207521554359445 39.0763597828123466
 29.0068882975501445 11.8504852662418081 39.0763597828123466
 29.0068882975501445 22.0045386440806432 39.0763597828123466
 29.0068882975501445 32.1585920219194605 39.0763597828123466
 29.0068882975501481 42.3126453997582814 39.0763597828123466
 29.0068882975501445 52.4666987775971023 39.0763597828123466
 29.0068882975501339 62.6207521554359516 39.0763597828123466
 39.1609416753889619 22.0045386440806290 39.0763597828123466
 39.1609416753889690 32.1585920219194605 39.0763597828123466
 39.1609416753889548 42.3126453997582814 39.0763597828123466
 -11.6093252138051497 32.1585920219194605 39.0763597828123466
 -11.6093252138051515 42.3126453997582885 39.0763597828123466
 49.3149950532277970 22.0045386440806290 39.0763597828123466
 -1.4552718359663221 11.8504852662418170 39.0763597828123466
 -1.4552718359663173 22.0045386440806467 39.0763597828123466
 -3.0836097773021525 31.9165032149145240 39.7896123198932088
 -3.0836097773021542 42.0705565927533485 39.7896123198932088
 -3.0836097773021542 52.2246099705921765 39.7896123198932088
 -13.2376631551409769 52.2246099705921623 39.7896123198932088
  7.0704436005366684 11.6083964592368680 39.7896123198932088
  7.0704436005366702 21.7624498370756889 39.7896123198932088
  7.0704436005366684 31.9165032149145240 39.7896123198932088
  7.0704436005366720 42.0705565927533343 39.7896123198932088
  7.0704436005366667 52.2246099705921765 39.7896123198932088
 17.2244969783754946 11.6083964592368680 39.7896123198932088
 17.2244969783754982 21.7624498370756925 39.7896123198932088
 17.2244969783754911 31.9165032149145134 39.7896123198932088
 17.2244969783754911 42.0705565927533414 39.7896123198932088
 17.2244969783754875 52.2246099705921694 39.7896123198932088
 17.2244969783754911 62.3786633484309903 39.7896123198932088
 27.3785503562143155 11.6083964592368662 39.7896123198932088
 27.3785503562143226 21.7624498370756925 39.7896123198932088
 27.3785503562143191 31.9165032149145134 39.7896123198932088
 27.3785503562143191 42.0705565927533485 39.7896123198932088
 27.3785503562143191 52.2246099705921552 39.7896123198932088
 27.3785503562143049 62.3786633484309903 39.7896123198932088
 37.5326037340531258 21.7624498370756889 39.7896123198932088
 37.5326037340531258 31.9165032149145134 39.7896123198932088
 37.5326037340531329 42.0705565927533343 39.7896123198932088
 37.5326037340531329 52.2246099705921694 39.7896123198932088
 -13.2376631551409716 42.0705565927533556 39.7896123198932088
 47.6866571118919538 21.7624498370756854 39.7896123198932088
 -3.0836097773021498 11.6083964592368716 39.7896123198932088
 -3.0836097773021427 21.7624498370757031 39.7896123198932088
 -3.2103410482443699 31.2653000301292998 37.4760076673599869
 -3.2103410482443682 41.4193534079681172 37.4760076673599869
 -3.2103410482443735 51.5734067858069523 37.4760076673599869
 -13.3643944260831944 51.5734067858069523 37.4760076673599869
  6.9437123295944509 10.9571932744516509 37.4760076673599869
  6.9437123295944501 21.1112466522904718 37.4760076673599869
  6.9437123295944492 31.2653000301292998 37.4760076673599869
  6.9437123295944527 41.4193534079681243 37.4760076673599869
  6.9437123295944581 51.5734067858069523 37.4760076673599869
 17.0977657074332754 10.9571932744516545 37.4760076673599869
 17.0977657074332754 21.1112466522904683 37.4760076673599869
 17.0977657074332754 31.2653000301292998 37.4760076673599869
 17.0977657074332754 41.4193534079681172 37.4760076673599869
 17.0977657074332683 51.5734067858069523 37.4760076673599869
 17.0977657074332754 61.7274601636457874 37.4760076673599869
 27.2518190852720998 10.9571932744516509 37.4760076673599869
 27.2518190852720963 21.1112466522904754 37.4760076673599869
 27.2518190852720892 31.2653000301293069 37.4760076673599869
 27.2518190852720963 41.4193534079681172 37.4760076673599869
 27.2518190852720963 51.5734067858069380 37.4760076673599869
 27.2518190852720927 61.7274601636457874 37.4760076673599869
 37.4058724631109314 21.1112466522904754 37.4760076673599869
 37.4058724631109243 31.2653000301292998 37.4760076673599869
 37.4058724631109172 41.4193534079681172 37.4760076673599869
 37.4058724631109101 51.5734067858069380 37.4760076673599869
 -13.3643944260831962 41.4193534079681243 37.4760076673599869
 47.5599258409497452 21.1112466522904718 37.4760076673599869
 -3.2103410482443762 10.9571932744516509 37.4760076673599869
 -3.2103410482443699 21.1112466522904825 37.4760076673599869
 -4.1411006020393097 32.7904619203562291 37.6546002713123471
 -4.1411006020393053 42.9445152981950358 37.6546002713123471
 -4.1411006020393106 53.0985686760338638 37.6546002713123471
 -14.2951539798781386 53.0985686760338638 37.6546002713123471
  6.0129527757995085 12.4823551646785678 37.6546002713123471
  6.0129527757995129 22.6364085425173869 37.6546002713123471
  6.0129527757995049 32.7904619203562291 37.6546002713123471
  6.0129527757995103 42.9445152981950358 37.6546002713123471
  6.0129527757995085 53.0985686760338709 37.6546002713123471
 16.1670061536383329 12.4823551646785678 37.6546002713123471
 16.1670061536383294 22.6364085425173869 37.6546002713123471
 16.1670061536383294 32.7904619203562291 37.6546002713123471
 16.1670061536383329 42.9445152981950429 37.6546002713123471
 16.1670061536383400 53.0985686760338638 37.6546002713123471
 16.1670061536383294 63.2526220538726989 37.6546002713123471
 26.3210595314771574 12.4823551646785642 37.6546002713123471
 26.3210595314771574 22.6364085425173940 37.6546002713123471
 26.3210595314771574 32.7904619203562291 37.6546002713123471
 26.3210595314771609 42.9445152981950287 37.6546002713123471
 26.3210595314771538 53.0985686760338567 37.6546002713123471
 26.3210595314771538 63.2526220538727060 37.6546002713123471
 36.4751129093159818 22.6364085425173869 37.6546002713123471
 36.4751129093159818 32.7904619203562291 37.6546002713123471
 36.4751129093159676 42.9445152981950358 37.6546002713123471
 36.4751129093159818 53.0985686760338709 37.6546002713123471
 -14.2951539798781315 42.9445152981950429 37.6546002713123471
 46.6291662871548098 22.6364085425173798 37.6546002713123471
 -4.1411006020393151 12.4823551646785731 37.6546002713123471
 -4.1411006020393062 22.6364085425173940 37.6546002713123471
 -2.2374061565239796 34.0933574039513232 36.7002128558833576
 -2.2374061565239742 44.2474107817901441 36.7002128558833576
 -2.2374061565239778 54.4014641596289792 36.7002128558833576
  7.9166472213148449  3.6311972704348521 36.7002128558833576
  7.9166472213148440 13.7852506482736743 36.7002128558833576
  7.9166472213148449 23.9393040261125059 36.7002128558833576
  7.9166472213148378 34.0933574039513374 36.7002128558833576
  7.9166472213148431 44.2474107817901583 36.7002128558833576
  7.9166472213148431 54.4014641596289792 36.7002128558833576
 18.0707005991536676 13.7852506482736779 36.7002128558833576
 18.0707005991536676 23.9393040261125023 36.7002128558833576
 18.0707005991536676 34.0933574039513303 36.7002128558833576
 18.0707005991536604 44.2474107817901583 36.7002128558833576
 18.0707005991536604 54.4014641596289792 36.7002128558833576
 18.0707005991536604 64.5555175374678072 36.7002128558833576
 28.2247539769924920 13.7852506482736779 36.7002128558833576
 28.2247539769924884 23.9393040261125023 36.7002128558833576
 28.2247539769924849 34.0933574039513232 36.7002128558833576
 28.2247539769924884 44.2474107817901583 36.7002128558833576
 28.2247539769924849 54.4014641596289721 36.7002128558833576
 28.2247539769924920 64.5555175374678214 36.7002128558833576
 38.3788073548313164 23.9393040261124987 36.7002128558833576
 38.3788073548313164 34.0933574039513232 36.7002128558833576
 38.3788073548313093 44.2474107817901512 36.7002128558833576
 -12.3914595343627916 34.0933574039513303 36.7002128558833576
 -12.3914595343628022 44.2474107817901654 36.7002128558833576
 48.5328607326701444 23.9393040261124987 36.7002128558833576
 -2.2374061565239782 13.7852506482736779 36.7002128558833576
 -2.2374061565239733 23.9393040261125130 36.7002128558833576
 -1.2228952749340163 32.5999956132109574 36.6314789156789615
 -1.2228952749340198 42.7540489910497783 36.6314789156789615
 -1.2228952749340216 52.9081023688886063 36.6314789156789615
 -11.3769486527728390 52.9081023688885992 36.6314789156789615
  8.9311581029048064 12.2918888575332943 36.6314789156789615
  8.9311581029048064 22.4459422353721223 36.6314789156789615
  8.9311581029048064 32.5999956132109574 36.6314789156789615
  8.9311581029048064 42.7540489910497712 36.6314789156789615
  8.9311581029048064 52.9081023688886063 36.6314789156789615
 19.0852114807436308 12.2918888575332996 36.6314789156789615
 19.0852114807436379 22.4459422353721187 36.6314789156789615
 19.0852114807436308 32.5999956132109432 36.6314789156789615
 19.0852114807436308 42.7540489910497783 36.6314789156789615
 19.0852114807436237 52.9081023688885992 36.6314789156789615
 19.0852114807436308 63.0621557467274343 36.6314789156789615
 29.2392648585824482 12.2918888575332907 36.6314789156789615
 29.2392648585824517 22.4459422353721223 36.6314789156789615
 29.2392648585824553 32.5999956132109432 36.6314789156789615
 29.2392648585824588 42.7540489910497783 36.6314789156789615
 29.2392648585824553 52.9081023688885921 36.6314789156789615
 29.2392648585824517 63.0621557467274201 36.6314789156789615
 39.3933182364212797 22.4459422353721187 36.6314789156789615
 39.3933182364212797 32.5999956132109503 36.6314789156789615
 39.3933182364212726 42.7540489910497712 36.6314789156789615
 -11.3769486527728372 32.5999956132109503 36.6314789156789615
 -11.3769486527728318 42.7540489910497783 36.6314789156789615
 49.5473716142601006 22.4459422353721152 36.6314789156789615
 -1.2228952749340212 12.2918888575332961 36.6314789156789615
 -1.2228952749340163 22.4459422353721223 36.6314789156789615
 -2.8550910275801709 31.5715295302462202 35.0308677901059085
 -2.8550910275801709 41.7255829080850518 35.0308677901059085
 -2.8550910275801780 51.8796362859238798 35.0308677901059085
 -13.0091444054189971 51.8796362859238727 35.0308677901059085
  7.2989623502586518 11.2634227745685713 35.0308677901059085
  7.2989623502586518 21.4174761524073993 35.0308677901059085
  7.2989623502586518 31.5715295302462202 35.0308677901059085
  7.2989623502586465 41.7255829080850447 35.0308677901059085
  7.2989623502586483 51.8796362859238798 35.0308677901059085
 17.4530157280974763 11.2634227745685731 35.0308677901059085
 17.4530157280974798 21.4174761524073958 35.0308677901059085
 17.4530157280974727 31.5715295302462167 35.0308677901059085
 17.4530157280974692 41.7255829080850518 35.0308677901059085
 17.4530157280974727 51.8796362859238727 35.0308677901059085
 17.4530157280974798 62.0336896637626936 35.0308677901059085
 27.6070691059363043 11.2634227745685696 35.0308677901059085
 27.6070691059362971 21.4174761524073958 35.0308677901059085
 27.6070691059362971 31.5715295302462167 35.0308677901059085
 27.6070691059362971 41.7255829080850447 35.0308677901059085
 27.6070691059362900 51.8796362859238656 35.0308677901059085
 27.6070691059363007 62.0336896637626865 35.0308677901059085
 37.7611224837751251 21.4174761524073958 35.0308677901059085
 37.7611224837751251 31.5715295302462202 35.0308677901059085
 37.7611224837751251 41.7255829080850447 35.0308677901059085
 37.7611224837751180 51.8796362859238656 35.0308677901059085
 -13.0091444054189953 41.7255829080850518 35.0308677901059085
 47.9151758616139389 21.4174761524073922 35.0308677901059085
 -2.8550910275801744 11.2634227745685731 35.0308677901059085
 -2.8550910275801575 21.4174761524074064 35.0308677901059085
 -3.8768403540038747 33.0577109258429189 35.1140873260427995
 -3.8768403540038747 43.2117643036817398 35.1140873260427995
 -3.8768403540038747 53.3658176815205820 35.1140873260427995
  6.2772130238349479  2.5955507923264491 35.1140873260427995
  6.2772130238349479 12.7496041701652718 35.1140873260427995
  6.2772130238349462 22.9036575480041016 35.1140873260427995
  6.2772130238349497 33.0577109258429189 35.1140873260427995
  6.2772130238349426 43.2117643036817540 35.1140873260427995
  6.2772130238349533 53.3658176815205678 35.1140873260427995
 16.4312664016737671 12.7496041701652736 35.1140873260427995
 16.4312664016737671 22.9036575480040980 35.1140873260427995
 16.4312664016737671 33.0577109258429260 35.1140873260427995
 16.4312664016737635 43.2117643036817469 35.1140873260427995
 16.4312664016737742 53.3658176815205678 35.1140873260427995
 16.4312664016737635 63.5198710593593887 35.1140873260427995
 26.5853197795125915 12.7496041701652718 35.1140873260427995
 26.5853197795125915 22.9036575480041016 35.1140873260427995
 26.5853197795125880 33.0577109258429189 35.1140873260427995
 26.5853197795126022 43.2117643036817398 35.1140873260427995
 26.5853197795125880 53.3658176815205678 35.1140873260427995
 26.5853197795125951 63.5198710593593887 35.1140873260427995
 36.7393731573514231 22.9036575480040980 35.1140873260427995
 36.7393731573514017 33.0577109258429189 35.1140873260427995
 36.7393731573514088 43.2117643036817469 35.1140873260427995
 36.7393731573514088 53.3658176815205820 35.1140873260427995
 -14.0308937318426992 43.2117643036817469 35.1140873260427995
 46.8934265351902368 22.9036575480040980 35.1140873260427995
 -3.8768403540038792 12.7496041701652736 35.1140873260427995
 -3.8768403540038738 22.9036575480040980 35.1140873260427995
 -0.9448159750702168 32.9359967268773062 34.1331969288767993
 -0.9448159750702168 43.0900501047161342 34.1331969288767993
 -0.9448159750702203 53.2441034825549693 34.1331969288767993
 -11.0988693529090359 53.2441034825549551 34.1331969288767993
  9.2092374027686059 12.6278899711996591 34.1331969288767993
  9.2092374027686077 22.7819433490384782 34.1331969288767993
  9.2092374027686077 32.9359967268773062 34.1331969288767993
  9.2092374027686041 43.0900501047161271 34.1331969288767993
  9.2092374027686077 53.2441034825549693 34.1331969288767993
 19.3632907806074321 12.6278899711996608 34.1331969288767993
 19.3632907806074321 22.7819433490384782 34.1331969288767993
 19.3632907806074286 32.9359967268773062 34.1331969288767993
 19.3632907806074286 43.0900501047161271 34.1331969288767993
 19.3632907806074392 53.2441034825549480 34.1331969288767993
 19.3632907806074215 63.3981568603937973 34.1331969288767993
 29.5173441584462530 12.6278899711996537 34.1331969288767993
 29.5173441584462530 22.7819433490384853 34.1331969288767993
 29.5173441584462530 32.9359967268773062 34.1331969288767993
 29.5173441584462495 43.0900501047161271 34.1331969288767993
 29.5173441584462530 53.2441034825549480 34.1331969288767993
 29.5173441584462424 63.3981568603937902 34.1331969288767993
 39.6713975362850846 22.7819433490384782 34.1331969288767993
 39.6713975362850775 32.9359967268773062 34.1331969288767993
 39.6713975362850704 43.0900501047161271 34.1331969288767993
 -11.0988693529090270 32.9359967268773062 34.1331969288767993
 -11.0988693529090483 43.0900501047161342 34.1331969288767993
 -0.9448159750702080  2.4738365933608337 34.1331969288767993
 -0.9448159750702154 12.6278899711996608 34.1331969288767993
 -0.9448159750702114 22.7819433490384924 34.1331969288767993
 -1.9661075291163765 34.4198493180404199 34.2137465740011208
 -1.9661075291163712 44.5739026958792408 34.2137465740011208
 -1.9661075291163748 54.7279560737180759 34.2137465740011208
  8.1879458487224444  3.9576891845239497 34.2137465740011208
  8.1879458487224461 14.1117425623627710 34.2137465740011208
  8.1879458487224461 24.2657959402016026 34.2137465740011208
  8.1879458487224444 34.4198493180404199 34.2137465740011208
  8.1879458487224497 44.5739026958792408 34.2137465740011208
  8.1879458487224497 54.7279560737180688 34.2137465740011208
 18.3419992265612706 14.1117425623627746 34.2137465740011208
 18.3419992265612706 24.2657959402015990 34.2137465740011208
 18.3419992265612670 34.4198493180404341 34.2137465740011208
 18.3419992265612706 44.5739026958792408 34.2137465740011208
 18.3419992265612670 54.7279560737180688 34.2137465740011208
 18.3419992265612706 64.8820094515568826 34.2137465740011208
 28.4960526044000950 14.1117425623627710 34.2137465740011208
 28.4960526044000915 24.2657959402015990 34.2137465740011208
 28.4960526044000915 34.4198493180404341 34.2137465740011208
 28.4960526044001021 44.5739026958792408 34.2137465740011208
 28.4960526044000879 54.7279560737180759 34.2137465740011208
 28.4960526044000879 64.8820094515568826 34.2137465740011208
 38.6501059822389124 24.2657959402015990 34.2137465740011208
 38.6501059822389053 34.4198493180404341 34.2137465740011208
 38.6501059822389124 44.5739026958792408 34.2137465740011208
 -12.1201609069551868 34.4198493180404199 34.2137465740011208
 -12.1201609069552063 44.5739026958792479 34.2137465740011208
 48.8041593600777475 24.2657959402015990 34.2137465740011208
 -1.9661075291163876 14.1117425623627746 34.2137465740011208
 -1.9661075291163730 24.2657959402016097 34.2137465740011208
 -3.5107943270644029 33.3846456636783984 32.6709995206087314
 -3.5107943270643993 43.5386990415172193 32.6709995206087314
 -3.5107943270644029 53.6927524193560401 32.6709995206087314
  6.6432590507744216  2.9224855301619135 32.6709995206087314
  6.6432590507744180 13.0765389080007388 32.6709995206087314
  6.6432590507744234 23.2305922858395668 32.6709995206087314
  6.6432590507744234 33.3846456636783984 32.6709995206087314
  6.6432590507744287 43.5386990415172050 32.6709995206087314
  6.6432590507744251 53.6927524193560401 32.6709995206087314
 16.7973124286132460 13.0765389080007388 32.6709995206087314
 16.7973124286132460 23.2305922858395633 32.6709995206087314
 16.7973124286132425 33.3846456636783842 32.6709995206087314
 16.7973124286132460 43.5386990415172050 32.6709995206087314
 16.7973124286132425 53.6927524193560259 32.6709995206087314
 16.7973124286132425 63.8468057971948610 32.6709995206087314
 26.9513658064520669 13.0765389080007388 32.6709995206087314
 26.9513658064520669 23.2305922858395633 32.6709995206087314
 26.9513658064520598 33.3846456636783842 32.6709995206087314
 26.9513658064520740 43.5386990415172050 32.6709995206087314
 26.9513658064520669 53.6927524193560259 32.6709995206087314
 26.9513658064520740 63.8468057971948681 32.6709995206087314
 37.1054191842908807 23.2305922858395526 32.6709995206087314
 37.1054191842908878 33.3846456636783842 32.6709995206087314
 37.1054191842908736 43.5386990415172050 32.6709995206087314
 37.1054191842908878 53.6927524193560330 32.6709995206087314
 -13.6648477049032238 43.5386990415172122 32.6709995206087314
 47.2594725621297229 23.2305922858395597 32.6709995206087314
 -3.5107943270644011 13.0765389080007441 32.6709995206087314
 -3.5107943270643922 23.2305922858395668 32.6709995206087314
 -1.9404669676583506 33.4616042953492467 32.0205901650752409
 -1.9404669676583488 43.6156576731880676 32.0205901650752409
 -1.9404669676583488 53.7697110510269027 32.0205901650752409
 -12.0945203454971697 53.7697110510268814 32.0205901650752409
  8.2135864101804703 13.1534975396716014 32.0205901650752409
  8.2135864101804703 23.3075509175104258 32.0205901650752409
  8.2135864101804703 33.4616042953492467 32.0205901650752409
  8.2135864101804685 43.6156576731880818 32.0205901650752409
  8.2135864101804756 53.7697110510269027 32.0205901650752409
 18.3676397880192894 13.1534975396716014 32.0205901650752409
 18.3676397880192930 23.3075509175104258 32.0205901650752409
 18.3676397880192965 33.4616042953492467 32.0205901650752409
 18.3676397880192965 43.6156576731880676 32.0205901650752409
 18.3676397880192894 53.7697110510268885 32.0205901650752409
 18.3676397880192930 63.9237644288657449 32.0205901650752409
 28.5216931658581174 13.1534975396715996 32.0205901650752409
 28.5216931658581103 23.3075509175104258 32.0205901650752409
 28.5216931658581174 33.4616042953492467 32.0205901650752409
 28.5216931658581245 43.6156576731880747 32.0205901650752409
 28.5216931658581174 53.7697110510269027 32.0205901650752409
 28.5216931658581139 63.9237644288657236 32.0205901650752409
 38.6757465436969383 23.3075509175104223 32.0205901650752409
 38.6757465436969525 33.4616042953492467 32.0205901650752409
 38.6757465436969383 43.6156576731880676 32.0205901650752409
 -12.0945203454971608 33.4616042953492467 32.0205901650752409
 -12.0945203454971786 43.6156576731880889 32.0205901650752409
 48.8297999215357521 23.3075509175104187 32.0205901650752409
 -1.9404669676583461 13.1534975396716032 32.0205901650752409
 -1.9404669676583532 23.3075509175104258 32.0205901650752409
 -2.5409880266601590 31.9765869462342138 32.5941193415438732
 -2.5409880266601537 42.1306403240730418 32.5941193415438732
 -2.5409880266601572 52.2846937019118627 32.5941193415438732
 -12.6950414044989799 52.2846937019118556 32.5941193415438732
  7.6130653511786672 11.6684801905565649 32.5941193415438732
  7.6130653511786663 21.8225335683953858 32.5941193415438732
  7.6130653511786655 31.9765869462342138 32.5941193415438732
  7.6130653511786672 42.1306403240730418 32.5941193415438732
  7.6130653511786690 52.2846937019118769 32.5941193415438732
 17.7671187290174899 11.6684801905565685 32.5941193415438732
 17.7671187290174935 21.8225335683953929 32.5941193415438732
 17.7671187290174899 31.9765869462342138 32.5941193415438732
 17.7671187290174899 42.1306403240730347 32.5941193415438732
 17.7671187290174899 52.2846937019118556 32.5941193415438732
 17.7671187290174970 62.4387470797506836 32.5941193415438732
 27.9211721068563179 11.6684801905565649 32.5941193415438732
 27.9211721068563143 21.8225335683953929 32.5941193415438732
 27.9211721068563214 31.9765869462342138 32.5941193415438732
 27.9211721068563108 42.1306403240730418 32.5941193415438732
 27.9211721068563179 52.2846937019118698 32.5941193415438732
 27.9211721068563143 62.4387470797506978 32.5941193415438732
 38.0752254846951317 21.8225335683953929 32.5941193415438732
 38.0752254846951388 31.9765869462342138 32.5941193415438732
 38.0752254846951317 42.1306403240730418 32.5941193415438732
 -12.6950414044989763 31.9765869462342245 32.5941193415438732
 -12.6950414044989799 42.1306403240730489 32.5941193415438732
 48.2292788625339668 21.8225335683953858 32.5941193415438732
 -2.5409880266601590 11.6684801905565667 32.5941193415438732
 -2.5409880266601421 21.8225335683953965 32.5941193415438732
  0.0875349429124028  3.5889326594085502 18.5075901650752428
  7.4404701475543069 10.5917280924008423 18.5075901650752428
  0.4376747145620179 17.9446632970427480 18.5075901650752428
 -6.5651207184302773 25.2975985016846607 18.5075901650752428
 14.7934053521962099 17.5945235253931358 18.5075901650752428
  7.7906099192039138 24.9474587300350450 18.5075901650752428
  0.7878144862116265 32.3003939346769471 18.5075901650752428
 -6.2149809467806634 39.6533291393188563 18.5075901650752428
 -13.2177763797729639 47.0062643439607726 18.5075901650752428
 29.1491359898304125 17.2443837537435201 18.5075901650752428
 22.1463405568381226 24.5973189583854257 18.5075901650752428
 15.1435451238458292 31.9502541630273384 18.5075901650752428
  8.1407496908535339 39.3031893676692476 18.5075901650752428
  1.1379542578612352 46.6561245723111639 18.5075901650752428
 -5.8648411751310565 54.0090597769530589 18.5075901650752428
 36.5020711944723075 24.2471791867358064 18.5075901650752428
 29.4992757614800212 31.6001143913777263 18.5075901650752428
 22.4964803284877206 38.9530495960196390 18.5075901650752428
 15.4936848954954360 46.3059848006615482 18.5075901650752428
  8.4908894625031479 53.6589200053034503 18.5075901650752428
 21.7962007851884891 10.2415883207512408 18.5075901650752428
 43.8550063991142167 31.2499746197281070 18.5075901650752428
 36.8522109661219304 38.6029098243700162 18.5075901650752428
 29.8494155331296440 45.9558450290119396 18.5075901650752428
 22.8466201001373435 53.3087802336538346 18.5075901650752428
 15.8438246671450464 60.6617154382957509 18.5075901650752428
 37.2023507377715461 52.9586404620042117 18.5075901650752428
 30.1995553047792527 60.3115756666461351 18.5075901650752428
 23.1967598717869521 67.6645108712880301 18.5075901650752428
  0.2626048287372091 10.7667979782256520 18.5075901650752428
  7.6155400333791121 17.7695934112179437 18.5075901650752428
  0.6127446003868240 25.1225286158598529 18.5075901650752428
 -6.3900508326054739 32.4754638205017656 18.5075901650752428
 14.9684752380210249 24.7723888442102407 18.5075901650752428
  7.9656798050287243 32.1253240488521499 18.5075901650752428
  0.9628843720364291 39.4782592534940591 18.5075901650752428
 -6.0399110609558626 46.8311944581359612 18.5075901650752428
  7.2654002617294902  3.4138627735837490 18.5075901650752428
 29.3242058756552240 24.4222490725606285 18.5075901650752428
 22.3214104426629305 31.7751842772025341 18.5075901650752428
 15.3186150096706371 39.1281194818444433 18.5075901650752428
  8.3158195766783400 46.4810546864863454 18.5075901650752428
  1.3130241436860466 53.8339898911282475 18.5075901650752428
 14.6183354663713967 10.4166582065760380 18.5075901650752428
 36.6771410802971261 31.4250445055529113 18.5075901650752428
 29.6743456473048326 38.7779797101948276 18.5075901650752428
 22.6715502143125356 46.1309149148367368 18.5075901650752428
 15.6687547813202492 53.4838501194786460 18.5075901650752428
  8.6659593483279522 60.8367853241205410 18.5075901650752428
 21.9712706710133077 17.4194536395683386 18.5075901650752428
 -6.7401906042550861 18.1197331828675665 18.5075901650752428
 37.0272808519467418 45.7807751431871210 18.5075901650752428
 30.0244854189544270 53.1337103478290231 18.5075901650752428
 23.0216899859621513 60.4866455524709252 18.5075901650752428
 36.3270013086474890 17.0693138679187193 18.5075901650752428
 -13.3928462655977576 39.8283990251436677 18.5075901650752428
 30.3746251906040534 67.4894409854632471 18.5075901650752428
 43.6799365132893911 24.0721093009110021 18.5075901650752428
  0.0875349429124028  3.5889326594085502 14.9175901650752429
  7.4404701475543069 10.5917280924008423 14.9175901650752429
  0.4376747145620179 17.9446632970427480 14.9175901650752429
 -6.5651207184302773 25.2975985016846607 14.9175901650752429
 14.7934053521962099 17.5945235253931358 14.9175901650752429
  7.7906099192039138 24.9474587300350450 14.9175901650752429
  0.7878144862116265 32.3003939346769471 14.9175901650752429
 -6.2149809467806634 39.6533291393188563 14.9175901650752429
 -13.2177763797729639 47.0062643439607726 14.9175901650752429
 29.1491359898304125 17.2443837537435201 14.9175901650752429
 22.1463405568381226 24.5973189583854257 14.9175901650752429
 15.1435451238458292 31.9502541630273384 14.9175901650752429
  8.1407496908535339 39.3031893676692476 14.9175901650752429
  1.1379542578612352 46.6561245723111639 14.9175901650752429
 -5.8648411751310565 54.0090597769530589 14.9175901650752429
 36.5020711944723075 24.2471791867358064 14.9175901650752429
 29.4992757614800212 31.6001143913777263 14.9175901650752429
 22.4964803284877206 38.9530495960196390 14.9175901650752429
 15.4936848954954360 46.3059848006615482 14.9175901650752429
  8.4908894625031479 53.6589200053034503 14.9175901650752429
 21.7962007851884891 10.2415883207512408 14.9175901650752429
 43.8550063991142167 31.2499746197281070 14.9175901650752429
 36.8522109661219304 38.6029098243700162 14.9175901650752429
 29.8494155331296440 45.9558450290119396 14.9175901650752429
 22.8466201001373435 53.3087802336538346 14.9175901650752429
 15.8438246671450464 60.6617154382957509 14.9175901650752429
 37.2023507377715461 52.9586404620042117 14.9175901650752429
 30.1995553047792527 60.3115756666461351 14.9175901650752429
 23.1967598717869521 67.6645108712880301 14.9175901650752429
  0.2626048287372091 10.7667979782256520 14.9175901650752429
  7.6155400333791121 17.7695934112179437 14.9175901650752429
  0.6127446003868240 25.1225286158598529 14.9175901650752429
 -6.3900508326054739 32.4754638205017656 14.9175901650752429
 14.9684752380210249 24.7723888442102407 14.9175901650752429
  7.9656798050287243 32.1253240488521499 14.9175901650752429
  0.9628843720364291 39.4782592534940591 14.9175901650752429
 -6.0399110609558626 46.8311944581359612 14.9175901650752429
  7.2654002617294902  3.4138627735837490 14.9175901650752429
 29.3242058756552240 24.4222490725606285 14.9175901650752429
 22.3214104426629305 31.7751842772025341 14.9175901650752429
 15.3186150096706371 39.1281194818444433 14.9175901650752429
  8.3158195766783400 46.4810546864863454 14.9175901650752429
  1.3130241436860466 53.8339898911282475 14.9175901650752429
 14.6183354663713967 10.4166582065760380 14.9175901650752429
 36.6771410802971261 31.4250445055529113 14.9175901650752429
 29.6743456473048326 38.7779797101948276 14.9175901650752429
 22.6715502143125356 46.1309149148367368 14.9175901650752429
 15.6687547813202492 53.4838501194786460 14.9175901650752429
  8.6659593483279522 60.8367853241205410 14.9175901650752429
 21.9712706710133077 17.4194536395683386 14.9175901650752429
 -6.7401906042550861 18.1197331828675665 14.9175901650752429
 37.0272808519467418 45.7807751431871210 14.9175901650752429
 30.0244854189544270 53.1337103478290231 14.9175901650752429
 23.0216899859621513 60.4866455524709252 14.9175901650752429
 36.3270013086474890 17.0693138679187193 14.9175901650752429
 -13.3928462655977576 39.8283990251436677 14.9175901650752429
 30.3746251906040534 67.4894409854632471 14.9175901650752429
 43.6799365132893911 24.0721093009110021 14.9175901650752429
  0.0000000000000000  0.0000000000000000 18.5075901650752428
  7.3529352046419056  7.0027954329922943 18.5075901650752428
  0.3501397716496104 14.3557306376342027 18.5075901650752428
 -6.6526556613426822 21.7086658422761083 18.5075901650752428
 14.7058704092838113 14.0055908659845887 18.5075901650752428
  7.7030749762915143 21.3585260706264997 18.5075901650752428
  0.7002795432992208 28.7114612752684053 18.5075901650752428
 -6.3025158896930691 36.0643964799103145 18.5075901650752428
 -13.3053113226853643 43.4173316845522166 18.5075901650752428
 29.0616010469180104 13.6554510943349747 18.5075901650752428
 22.0588056139257240 21.0083862989768804 18.5075901650752428
 15.0560101809334235 28.3613215036187896 18.5075901650752428
  8.0532147479411300 35.7142567082606917 18.5075901650752428
  1.0504193149488366 43.0671919129026080 18.5075901650752428
 -5.9523761180434587 50.4201271175445029 18.5075901650752428
 36.4145362515599160 20.6582465273272611 18.5075901650752428
 29.4117408185676226 28.0111817319691774 18.5075901650752428
 22.4089453855753256 35.3641169366110759 18.5075901650752428
 15.4061499525830286 42.7170521412529993 18.5075901650752428
  8.4033545195907386 50.0699873458948872 18.5075901650752428
  1.4005590865984416 57.4229225505368106 18.5075901650752428
 43.7674714562018181 27.6610419603195581 18.5075901650752428
 36.7646760232095318 35.0139771649614602 18.5075901650752428
 29.7618805902172312 42.3669123696033836 18.5075901650752428
 22.7590851572249484 49.7198475742452715 18.5075901650752428
 15.7562897242326372 57.0727827788871878 18.5075901650752428
 37.1148157948591475 49.3697078025956699 18.5075901650752428
 30.1120203618668469 56.7226430072375791 18.5075901650752428
 23.1092249288745357 64.0755782118794883 18.5075901650752428
  3.6764676023209515  3.5013977164961458 18.5075901650752428
 11.0294028069628620 10.5041931494884402 18.5075901650752428
  4.0266073739705641 17.8571283541303494 18.5075901650752428
 -2.9761880590217311 25.2100635587722621 18.5075901650752428
 18.3823380116047659 17.5069885824807301 18.5075901650752428
 11.3795425786124724 24.8599237871226393 18.5075901650752428
  4.3767471456201772 32.2128589917645485 18.5075901650752428
 -2.6260482873721198 39.5657941964064648 18.5075901650752428
 -9.6288437203644115 46.9187294010483740 18.5075901650752428
 32.7380686492389614 17.1568488108311072 18.5075901650752428
 25.7352732162466680 24.5097840154730235 18.5075901650752428
 18.7324777832543745 31.8627192201149398 18.5075901650752428
 11.7296823502620811 39.2156544247568348 18.5075901650752428
  4.7268869172697894 46.5685896293987511 18.5075901650752428
 -2.2759085157224952 53.9215248340406461 18.5075901650752428
 40.0910038538808635 24.1596442438234114 18.5075901650752428
 33.0882084208885843 31.5125794484653241 18.5075901650752428
 26.0854129878962766 38.8655146531072333 18.5075901650752428
 19.0826175549039760 46.2184498577491354 18.5075901650752428
 12.0798221219116897 53.5713850623910375 18.5075901650752428
 25.3851334445970345 10.1540533778388422 18.5075901650752428
 -3.3263278306713446 10.8543329211380541 18.5075901650752428
 40.4411436255304721 38.5153748814576176 18.5075901650752428
 33.4383481925381716 45.8683100860995268 18.5075901650752428
 26.4355527595458959 53.2212452907414146 18.5075901650752428
 19.4327573265535918 60.5741804953833167 18.5075901650752428
 -9.9789834920140077 32.5629987634141713 18.5075901650752428
 33.7884879641877944 60.2240407237337294 18.5075901650752428
 26.7856925311955045 67.5769759283756173 18.5075901650752428
 47.2688691726979613 23.9845743579985999 18.5075901650752428
  3.8515374881457589 10.6792630353132463 18.5075901650752428
 -3.1512579448465345 18.0321982399551572 18.5075901650752428
 -10.1540533778388262 25.3851334445970664 18.5075901650752428
 11.2044726927876628 17.6820584683055380 18.5075901650752428
  4.2016772597953658 25.0349936729474507 18.5075901650752428
 -2.8011181731969277 32.3879288775893599 18.5075901650752428
 -9.8039136061892158 39.7408640822312691 18.5075901650752428
 -16.8067090391815128 47.0937992868731783 18.5075901650752428
 25.5602033304218601 17.3319186966559258 18.5075901650752428
 18.5574078974295738 24.6848539012978350 18.5075901650752428
 11.5546124644372767 32.0377891059397513 18.5075901650752428
  4.5518170314449780 39.3907243105816463 18.5075901650752428
 -2.4509784015473119 46.7436595152235626 18.5075901650752428
 -9.4537738345396001 54.0965947198654575 18.5075901650752428
 32.9131385350637586 24.3347141296482121 18.5075901650752428
 25.9103431020714723 31.6876493342901284 18.5075901650752428
 18.9075476690791788 39.0405845389320234 18.5075901650752428
 11.9047522360868836 46.3935197435739468 18.5075901650752428
  4.9019568030945955 53.7464549482158418 18.5075901650752428
 18.2072681257799474 10.3291232636636394 18.5075901650752428
 40.2660737397056749 31.3375095626405127 18.5075901650752428
 33.2632783067133744 38.6904447672824148 18.5075901650752428
 26.2604828737210880 46.0433799719243240 18.5075901650752428
 19.2576874407287981 53.3963151765662332 18.5075901650752428
 12.2548920077365047 60.7492503812081353 18.5075901650752428
 33.6134180783629972 53.0461754049166103 18.5075901650752428
 26.6106226453707002 60.3991106095585408 18.5075901650752428
 39.9159339680560450 16.9817789250063207 18.5075901650752428
  0.1750698858248056  7.1778653188171004 18.5075901650752428
  7.5280050904667117 14.1806607518093948 18.5075901650752428
  0.5252096574744183 21.5335959564513040 18.5075901650752428
 -6.4775857755178725 28.8865311610932025 18.5075901650752428
 14.8809402951086138 21.1834561848016847 18.5075901650752428
  7.8781448621163186 28.5363913894435939 18.5075901650752428
  0.8753494291240358 35.8893265940854960 18.5075901650752428
 -6.1274460038682648 43.2422617987274123 18.5075901650752428
 -13.1302414368605547 50.5951970033693215 18.5075901650752428
 29.2366709327428183 20.8333164131520761 18.5075901650752428
 22.2338754997505248 28.1862516177939781 18.5075901650752428
 15.2310800667582242 35.5391868224358873 18.5075901650752428
  8.2282846337659414 42.8921220270777894 18.5075901650752428
  1.2254892007736409 50.2450572317197057 18.5075901650752428
 14.5308005234589981  6.8277255471674900 18.5075901650752428
 36.5896061373847132 27.8361118461443624 18.5075901650752428
 29.5868107043924198 35.1890470507862716 18.5075901650752428
 22.5840152714001299 42.5419822554281879 18.5075901650752428
 15.5812198384078275 49.8949174600700900 18.5075901650752428
  8.5784244054155465 57.2478526647120063 18.5075901650752428
 21.8837357281008948 13.8305209801597861 18.5075901650752428
 43.9425413420266224 34.8389072791366559 18.5075901650752428
 36.9397459090343290 42.1918424837785722 18.5075901650752428
 29.9369504760420355 49.5447776884204885 18.5075901650752428
 22.9341550430497527 56.8977128930623905 18.5075901650752428
 15.9313596100574486 64.2506480977042997 18.5075901650752428
 -13.4803812085101615 36.2394663657351259 18.5075901650752428
 30.2870902476916584 63.9005083260546769 18.5075901650752428
 43.5924015703769996 20.4831766415024603 18.5075901650752428
  0.0875349429124028  3.5889326594085502 22.0975901650752462
  7.4404701475543069 10.5917280924008423 22.0975901650752462
  0.4376747145620179 17.9446632970427480 22.0975901650752462
 -6.5651207184302773 25.2975985016846607 22.0975901650752462
 14.7934053521962099 17.5945235253931358 22.0975901650752462
  7.7906099192039138 24.9474587300350450 22.0975901650752462
  0.7878144862116265 32.3003939346769471 22.0975901650752462
 -6.2149809467806634 39.6533291393188563 22.0975901650752462
 -13.2177763797729639 47.0062643439607726 22.0975901650752462
 29.1491359898304125 17.2443837537435201 22.0975901650752462
 22.1463405568381226 24.5973189583854257 22.0975901650752462
 15.1435451238458292 31.9502541630273384 22.0975901650752462
  8.1407496908535339 39.3031893676692476 22.0975901650752462
  1.1379542578612352 46.6561245723111639 22.0975901650752462
 -5.8648411751310565 54.0090597769530589 22.0975901650752462
 36.5020711944723075 24.2471791867358064 22.0975901650752462
 29.4992757614800212 31.6001143913777263 22.0975901650752462
 22.4964803284877206 38.9530495960196390 22.0975901650752462
 15.4936848954954360 46.3059848006615482 22.0975901650752462
  8.4908894625031479 53.6589200053034503 22.0975901650752462
 21.7962007851884891 10.2415883207512408 22.0975901650752462
 43.8550063991142167 31.2499746197281070 22.0975901650752462
 36.8522109661219304 38.6029098243700162 22.0975901650752462
 29.8494155331296440 45.9558450290119396 22.0975901650752462
 22.8466201001373435 53.3087802336538346 22.0975901650752462
 15.8438246671450464 60.6617154382957509 22.0975901650752462
 37.2023507377715461 52.9586404620042117 22.0975901650752462
 30.1995553047792527 60.3115756666461351 22.0975901650752462
 23.1967598717869521 67.6645108712880301 22.0975901650752462
  0.2626048287372091 10.7667979782256520 22.0975901650752462
  7.6155400333791121 17.7695934112179437 22.0975901650752462
  0.6127446003868240 25.1225286158598529 22.0975901650752462
 -6.3900508326054739 32.4754638205017656 22.0975901650752462
 14.9684752380210249 24.7723888442102407 22.0975901650752462
  7.9656798050287243 32.1253240488521499 22.0975901650752462
  0.9628843720364291 39.4782592534940591 22.0975901650752462
 -6.0399110609558626 46.8311944581359612 22.0975901650752462
  7.2654002617294902  3.4138627735837490 22.0975901650752462
 29.3242058756552240 24.4222490725606285 22.0975901650752462
 22.3214104426629305 31.7751842772025341 22.0975901650752462
 15.3186150096706371 39.1281194818444433 22.0975901650752462
  8.3158195766783400 46.4810546864863454 22.0975901650752462
  1.3130241436860466 53.8339898911282475 22.0975901650752462
 14.6183354663713967 10.4166582065760380 22.0975901650752462
 36.6771410802971261 31.4250445055529113 22.0975901650752462
 29.6743456473048326 38.7779797101948276 22.0975901650752462
 22.6715502143125356 46.1309149148367368 22.0975901650752462
 15.6687547813202492 53.4838501194786460 22.0975901650752462
  8.6659593483279522 60.8367853241205410 22.0975901650752462
 21.9712706710133077 17.4194536395683386 22.0975901650752462
 -6.7401906042550861 18.1197331828675665 22.0975901650752462
 37.0272808519467418 45.7807751431871210 22.0975901650752462
 30.0244854189544270 53.1337103478290231 22.0975901650752462
 23.0216899859621513 60.4866455524709252 22.0975901650752462
 36.3270013086474890 17.0693138679187193 22.0975901650752462
 -13.3928462655977576 39.8283990251436677 22.0975901650752462
 30.3746251906040534 67.4894409854632471 22.0975901650752462
 43.6799365132893911 24.0721093009110021 22.0975901650752462
 48.0037184025574533 26.9054890470692634  8.5035493961519037
  4.5863867180052500 13.6001777243839044  8.5035493961519037
 -2.4164087149870435 20.9531129290258065  8.5035493961519037
 -9.4192041479793396 28.3060481336677157  8.5035493961519037
 11.9393219226471548 20.6029731573762014  8.5035493961519037
  4.9365264896548560 27.9559083620181070  8.5035493961519037
 -2.0662689433374322 35.3088435666600162  8.5035493961519037
 -9.0690643763297203 42.6617787713019112  8.5035493961519037
 -16.0718598093220173 50.0147139759438346  8.5035493961519037
 26.2950525602813450 20.2528333857265750  8.5035493961519037
 19.2922571272890515 27.6057685903684842  8.5035493961519037
 12.2894616942967616 34.9587037950103863  8.5035493961519037
  5.2866662613044753 42.3116389996522955  8.5035493961519037
 -1.7161291716878306 49.6645742042942118  8.5035493961519037
 11.5891821509975266  6.2472425197419996  8.5035493961519037
 33.6479877649232506 27.2556288187188649  8.5035493961519037
 26.6451923319309643 34.6085640233607919  8.5035493961519037
 19.6423968989386708 41.9614992280026868  8.5035493961519037
 12.6396014659463631 49.3144344326445889  8.5035493961519037
  5.6368060329540874 56.6673696372865052  8.5035493961519037
 18.9421173556394287 13.2500379527342993  8.5035493961519037
 41.0009229695651527 34.2584242517111761  8.5035493961519037
 33.9981275365728735 41.6113594563530711  8.5035493961519037
 26.9953321035805658 48.9642946609949945  8.5035493961519037
 19.9925366705882865 56.3172298656368895  8.5035493961519037
 12.9897412375959718 63.6701650702787987  8.5035493961519037
 34.3482673082224892 55.9670900939872809  8.5035493961519037
 27.3454718752301815 63.3200252986291758  8.5035493961519037
 40.6507831979155299 19.9026936140769664  8.5035493961519037
 47.0614089888920546 27.9357016924653649  8.9450047113663498
  3.6440773043398478 14.6303903697800113  8.9450047113663498
 -3.3587181286524439 21.9833255744219116  8.9450047113663498
 -10.3615135616447436 29.3362607790638314  8.9450047113663498
 10.9970125089817579 21.6331858027723065  8.9450047113663498
  3.9942170759894555 28.9861210074142122  8.9450047113663498
 -3.0085783570028362 36.3390562120561142  8.9450047113663498
 -10.0113737899951314 43.6919914166980305  8.9450047113663498
 -17.0141692229874160 51.0449266213399397  8.9450047113663498
 25.3527431466159463 21.2830460311226872  8.9450047113663498
 18.3499477136236635 28.6359812357645964  8.9450047113663498
 11.3471522806313683 35.9889164404064985  8.9450047113663498
  4.3443568476390766 43.3418516450484148  8.9450047113663498
 -2.6584385853532151 50.6947868496903240  8.9450047113663498
 10.6468727373321386  7.2774551651381048  8.9450047113663498
 32.7056783512578519 28.2858414641149807  8.9450047113663498
 25.7028829182655585 35.6387766687568899  8.9450047113663498
 18.7000874852732650 42.9917118733987920  8.9450047113663498
 11.6972920522809698 50.3446470780407083  8.9450047113663498
  4.6944966192886817 57.6975822826826104  8.9450047113663498
 17.9998079419740336 14.2802505981303991  8.9450047113663498
 40.0586135558997682 35.2886368971072812  8.9450047113663498
 33.0558181229074677 42.6415721017491762  8.9450047113663498
 26.0530226899151813 49.9945073063910854  8.9450047113663498
 19.0502272569228843 57.3474425110329946  8.9450047113663498
 32.3555385796082220 13.9301108264807940  8.9450047113663498
 33.4059578945570763 56.9973027393833860  8.9450047113663498
 26.4031624615647793 64.3502379440253094  8.9450047113663498
 39.7084737842501383 20.9329062594730821  8.9450047113663498
 46.4925256307598858 27.6409210636663438 10.3430320128339819
  3.0751939462076798 14.3356097409809848 10.3430320128339819
 -3.9276014867846119 21.6885449456228905 10.3430320128339819
 -10.9303969197769053 29.0414801502648068 10.3430320128339819
 10.4281291508495890 21.3384051739732818 10.3430320128339819
  3.4253337178572902 28.6913403786151839 10.3430320128339819
 -3.5774617151350032 36.0442755832571038 10.3430320128339819
 -10.5802571481272878 43.3972107878990059 10.3430320128339819
 -17.5830525811195919 50.7501459925409293 10.3430320128339819
 24.7838597884837810 20.9882654023236626 10.3430320128339819
 17.7810643554914840 28.3412006069655646 10.3430320128339819
 10.7782689224992030 35.6941358116074809 10.3430320128339819
  3.7754734895068971 43.0470710162493759 10.3430320128339819
 -3.2273219434853946 50.4000062208912993 10.3430320128339819
 10.0779893791999609  6.9826745363390827 10.3430320128339819
 32.1367949931256902 27.9910608353159560 10.3430320128339819
 25.1339995601333968 35.3439960399578723 10.3430320128339819
 18.1312041271410962 42.6969312445997815 10.3430320128339819
 11.1284086941487974 50.0498664492416836 10.3430320128339819
  4.1256132611565128 57.4028016538835928 10.3430320128339819
 17.4309245838418647 13.9854699693313798 10.3430320128339819
 39.4897301977675994 34.9938562683082495 10.3430320128339819
 32.4869347647752988 42.3467914729501587 10.3430320128339819
 25.4841393317830018 49.6997266775920821 10.3430320128339819
 18.4813438987907155 57.0526618822339842 10.3430320128339819
 31.7866552214760603 13.6353301976817640 10.3430320128339819
 32.8370745364249217 56.7025221105843684 10.3430320128339819
 25.8342791034326247 64.0554573152262634 10.3430320128339819
 39.1395904261179624 20.6381256306740468 10.3430320128339819
 47.5495427878159873 27.7712611917545757 11.4491485172145229
  4.1322111032637832 14.4659498690692274 11.4491485172145229
 -2.8705843297285121 21.8188850737111295 11.4491485172145229
 -9.8733797627208091 29.1718202783530458 11.4491485172145229
 11.4851463079056906 21.4687453020615173 11.4491485172145229
  4.4823508749133936 28.8216805067034265 11.4491485172145229
 -2.5204445580788963 36.1746157113453393 11.4491485172145229
 -9.5232399910711898 43.5275509159872414 11.4491485172145229
 -16.5260354240634904 50.8804861206291577 11.4491485172145229
 25.8408769455398826 21.1186055304119016 11.4491485172145229
 18.8380815125475891 28.4715407350538108 11.4491485172145229
 11.8352860795552939 35.8244759396957164 11.4491485172145229
  4.8324906465629986 43.1774111443376327 11.4491485172145229
 -2.1703047864292930 50.5303463489795419 11.4491485172145229
 11.1350065362560713  7.1130146644273182 11.4491485172145229
 33.1938121501817776 28.1214009634041844 11.4491485172145229
 26.1910167171894912 35.4743361680461007 11.4491485172145229
 19.1882212841971942 42.8272713726880028 11.4491485172145229
 12.1854258512049096 50.1802065773299120 11.4491485172145229
  5.1826304182126144 57.5331417819718212 11.4491485172145229
 18.4879417408979663 14.1158100974196152 11.4491485172145229
 40.5467473548237010 35.1241963963964849 11.4491485172145229
 33.5439519218313933 42.4771316010383941 11.4491485172145229
 26.5411564888391140 49.8300668056803104 11.4491485172145229
 19.5383610558468135 57.1830020103221983 11.4491485172145229
 32.8436723785321618 13.7656703257699995 11.4491485172145229
 33.8940916934810019 56.8328622386725968 11.4491485172145229
 26.8912962604887191 64.1857974433144989 11.4491485172145229
 40.1966075831740710 20.7684657587622894 11.4491485172145229
 46.9160882389894098 27.6058373967687238 12.8357882634943898
  3.4987565544372057 14.3005260740833773 12.8357882634943898
 -3.5040388785550904 21.6534612787252954 12.8357882634943898
 -10.5068343115473812 29.0063964833671939 12.8357882634943898
 10.8516917590791078 21.3033215070756725 12.8357882634943898
  3.8488963260868143 28.6562567117175782 12.8357882634943898
 -3.1538991069054738 36.0091919163594838 12.8357882634943898
 -10.1566945398977708 43.3621271210014001 12.8357882634943898
 -17.1594899728900643 50.7150623256433093 12.8357882634943898
 25.2074223967133122 20.9531817354260568 12.8357882634943898
 18.2046269637210223 28.3061169400679660 12.8357882634943898
 11.2018315307287217 35.6590521447098823 12.8357882634943898
  4.1990360977364301 43.0119873493517844 12.8357882634943898
 -2.8037593352558652 50.3649225539937007 12.8357882634943898
 10.5015519874294903  6.9475908694414805 12.8357882634943898
 32.5603576013552001 27.9559771684183502 12.8357882634943898
 25.5575621683629102 35.3089123730602665 12.8357882634943898
 18.5547667353706274 42.6618475777021757 12.8357882634943898
 11.5519713023783304 50.0147827823440849 12.8357882634943898
  4.5491758693860476 57.3677179869859799 12.8357882634943898
 17.8544871920713923 13.9503863024337775 12.8357882634943898
 39.9132928059971235 34.9587726014106437 12.8357882634943898
 32.9104973730048229 42.3117078060525600 12.8357882634943898
 25.9077019400125259 49.6646430106944692 12.8357882634943898
 18.9049065070202396 57.0175782153363713 12.8357882634943898
 32.2102178297055843 13.6002465307841636 12.8357882634943898
 33.2606371446544316 56.6674384436867413 12.8357882634943898
 26.2578417116621345 64.0203736483286718 12.8357882634943898
 39.5631530343475006 20.6030419637764517 12.8357882634943898
 -2.7982947145337849  7.4158954041281255 13.9429834756677646
  4.5546404901081212 14.4186908371204190 13.9429834756677646
 -2.4481549428841740 21.7716260417623246 13.9429834756677646
 -9.4509503758764666 29.1245612464042409 13.9429834756677646
 11.9075756947500260 21.4214862701127089 13.9429834756677646
  4.9047802617577307 28.7744214747546252 13.9429834756677646
 -2.0980151712345592 36.1273566793965273 13.9429834756677646
 -9.1008106042268544 43.4802918840384365 13.9429834756677646
 -16.1036060372191550 50.8332270886803528 13.9429834756677646
 26.2633063323842144 21.0713464984630932 13.9429834756677646
 19.2605108993919316 28.4242817031050024 13.9429834756677646
 12.2577154663996328 35.7772169077469044 13.9429834756677646
  5.2549200334073412 43.1301521123888136 13.9429834756677646
 -1.7478753995849488 50.4830873170307299 13.9429834756677646
 11.5574359231004049  7.0657556324785142 13.9429834756677646
 33.6162415370261272 28.0741419314553866 13.9429834756677646
 26.6134461040338408 35.4270771360973029 13.9429834756677646
 19.6106506710415474 42.7800123407392050 13.9429834756677646
 12.6078552380492539 50.1329475453811284 13.9429834756677646
  5.6050598050569640 57.4858827500230163 13.9429834756677646
 18.9103711277423088 14.0685510654708157 13.9429834756677646
 40.9691767416680293 35.0769373644476730 13.9429834756677646
 33.9663813086757358 42.4298725690895964 13.9429834756677646
 26.9635858756834423 49.7828077737315056 13.9429834756677646
 19.9607904426911595 57.1357429783734077 13.9429834756677646
 33.2661017653764972 13.7184112938211893 13.9429834756677646
 34.3165210803253586 56.7856032067237919 13.9429834756677646
 27.3137256473330581 64.1385384113657153 13.9429834756677646
 40.6190369700183993 20.7212067268134845 13.9429834756677646
 47.3642321939488582 27.5671245294844915 15.2639818234497522
  3.9469005093966514 14.2618132067991468 15.2639818234497522
 -3.0558949235956394 21.6147484114410524 15.2639818234497522
 -10.0586903565879364 28.9676836160829616 15.2639818234497522
 11.2998357140385579 21.2646086397914402 15.2639818234497522
  4.2970402810462609 28.6175438444333494 15.2639818234497522
 -2.7057551519460326 35.9704790490752515 15.2639818234497522
 -9.7085505849383189 43.3234142537171465 15.2639818234497522
 -16.7113460179306230 50.6763494583590770 15.2639818234497522
 25.6555663516727535 20.9144688681418174 15.2639818234497522
 18.6527709186804636 28.2674040727837301 15.2639818234497522
 11.6499754856881648 35.6203392774256358 15.2639818234497522
  4.6471800526958766 42.9732744820675521 15.2639818234497522
 -2.3556153802964257 50.3262096867094542 15.2639818234497522
 10.9496959423889404  6.9088780021572322 15.2639818234497522
 33.0085015563146555 27.9172643011341073 15.2639818234497522
 26.0057061233223692 35.2701995057760271 15.2639818234497522
 19.0029106903300686 42.6231347104179292 15.2639818234497522
 12.0001152573377823 49.9760699150598526 15.2639818234497522
  4.9973198243454853 57.3290051197017334 15.2639818234497522
 18.3026311470308372 13.9116734351495381 15.2639818234497522
 40.3614367609565576 34.9200597341264043 15.2639818234497522
 33.3586413279642713 42.2729949387683135 15.2639818234497522
 26.3558458949719707 49.6259301434102227 15.2639818234497522
 19.3530504619796879 56.9788653480521390 15.2639818234497522
 32.6583617846650256 13.5615336634999188 15.2639818234497522
 33.7087810996138870 56.6287255764025161 15.2639818234497522
 26.7059856666215936 63.9816607810444324 15.2639818234497522
 40.0112969893069277 20.5643290964922123 15.2639818234497522
 -2.5259658882469904  6.7655045627951411  7.5000000000000000
  4.8269693163949166 13.7682999957874355  7.5000000000000000
 -2.1758261165973796 21.1212352004293464  7.5000000000000000
 -9.1786215495896730 28.4741704050712556  7.5000000000000000
 12.1799045210368213 20.7710954287797307  7.5000000000000000
  5.1771090880445243 28.1240306334216363  7.5000000000000000
 -1.8256863449477692 35.4769658380635491  7.5000000000000000
 -8.8284817779400644 42.8299010427054583  7.5000000000000000
 -15.8312772109323561 50.1828362473473604  7.5000000000000000
 26.5356351586710240 20.4209556571301150  7.5000000000000000
 19.5328397256787341 27.7738908617720170  7.5000000000000000
 12.5300442926864388 35.1268260664139405  7.5000000000000000
  5.5272488596941383 42.4797612710558354  7.5000000000000000
 -1.4755465732981481 49.8326964756977446  7.5000000000000000
 11.8297647493872020  6.4153647911455298  7.5000000000000000
 33.8885703633129225 27.4237510901224084  7.5000000000000000
 26.8857749303206433 34.7766862947643176  7.5000000000000000
 19.8829794973283427 42.1296214994062268  7.5000000000000000
 12.8801840643360404 49.4825567040481360  7.5000000000000000
  5.8773886313437558 56.8354919086900381  7.5000000000000000
 19.1826999540291041 13.4181602241378286  7.5000000000000000
 41.2415055679548317 34.4265465231147019  7.5000000000000000
 34.2387101349625311 41.7794817277566111  7.5000000000000000
 27.2359147019702448 49.1324169323985203  7.5000000000000000
 20.2331192689779549 56.4853521370404223  7.5000000000000000
 13.2303238359856508 63.8382873416823315  7.5000000000000000
 34.5888499066121540 56.1352123653907995  7.5000000000000000
 27.5860544736198605 63.4881475700327229  7.5000000000000000
 40.8913657963052088 20.0708158854804992  7.5000000000000000
 -1.8861712457379887  6.6448096847804683  9.0644529715017619
  5.4667639589039165 13.6476051177727626  9.0644529715017619
 -1.5360314740883787 21.0005403224146718  9.0644529715017619
 -8.5388269070806722 28.3534755270565810  9.0644529715017619
 12.8196991635458204 20.6504005507650561  9.0644529715017619
  5.8169037305535252 28.0033357554069582  9.0644529715017619
 -1.1858917024387701 35.3562709600488674  9.0644529715017619
 -8.1886871354310529 42.7092061646907766  9.0644529715017619
 -15.1914825684233552 50.0621413693326858  9.0644529715017619
 27.1754298011800159 20.3002607791154404  9.0644529715017619
 20.1726343681877189 27.6531959837573353  9.0644529715017619
 13.1698389351954255 35.0061311883992445  9.0644529715017619
  6.1670435022031391 42.3590663930411750  9.0644529715017619
 -0.8357519307891614 49.7120015976830771  9.0644529715017619
 12.4695593918962011  6.2946699131308641  9.0644529715017619
 34.5283650058219251 27.3030562121077267  9.0644529715017619
 27.5255695728296352 34.6559914167496430  9.0644529715017619
 20.5227741398373347 42.0089266213915380  9.0644529715017619
 13.5199787068450430 49.3618618260334472  9.0644529715017619
  6.5171832738527513 56.7147970306753706  9.0644529715017619
 19.8224945965380996 13.2974653461231611  9.0644529715017619
 41.8813002104638272 34.3058516451000202  9.0644529715017619
 34.8785047774715480 41.6587868497419294  9.0644529715017619
 27.8757093444792403 49.0117220543838386  9.0644529715017619
 20.8729139114869575 56.3646572590257477  9.0644529715017619
 13.8701184784946498 63.7175924636676569  9.0644529715017619
 35.2286445491211424 56.0145174873761320  9.0644529715017619
 28.2258491161288525 63.3674526920180483  9.0644529715017619
 41.5311604388141973 19.9501210074658317  9.0644529715017619
 47.5740845154043015 25.9559617264572680  8.5907652569767148
  4.1567528308521018 12.6506504037719125  8.5907652569767148
 -2.8460426021401934 20.0035856084138253  8.5907652569767148
 -9.8488380351324878 27.3565208130557238  8.5907652569767148
 11.5096880354940065 19.6534458367642060  8.5907652569767148
  4.5068926025017078 27.0063810414061081  8.5907652569767148
 -2.4959028304905857 34.3593162460480244  8.5907652569767148
 -9.4986982634828756 41.7122514506899265  8.5907652569767148
 -16.5014936964751726 49.0651866553318499  8.5907652569767148
 25.8654186731282074 19.3033060651145867  8.5907652569767148
 18.8626232401359033 26.6562412697564959  8.5907652569767148
 11.8598278071436081 34.0091764743984015  8.5907652569767148
  4.8570323741513199 41.3621116790403036  8.5907652569767148
 -2.1457630588409664 48.7150468836822199  8.5907652569767148
 11.1595482638443784  5.2977151991300087  8.5907652569767148
 33.2183538777700988 26.3061014981068766  8.5907652569767148
 26.2155584447778125 33.6590367027487929  8.5907652569767148
 19.2127630117855119 41.0119719073907021  8.5907652569767148
 12.2099675787932203 48.3649071120326184  8.5907652569767148
  5.2071721458009286 55.7178423166745205  8.5907652569767148
 18.5124834684862805 12.3005106321223074  8.5907652569767148
 40.5712890824120151 33.3088969310991700  8.5907652569767148
 33.5684936494197217 40.6618321357410792  8.5907652569767148
 26.5656982164274353 48.0147673403829955  8.5907652569767148
 19.5629027834351348 55.3677025450248976  8.5907652569767148
 12.5601073504428236 62.7206377496667997  8.5907652569767148
 33.9186334210693374 55.0175627733752890  8.5907652569767148
 26.9158379880770262 62.3704979780171911  8.5907652569767148
 40.2211493107623852 18.9531662934649638  8.5907652569767148
 -3.2101923405759303  8.6222464943867010  8.9388205473381426
  4.1427428640659745 15.6250419273789927  8.9388205473381426
 -2.8600525689263137 22.9779771320208965  8.9388205473381426
 -9.8628480019186089 30.3309123366628057  8.9388205473381426
 11.4956780687078801 22.6278373603712879  8.9388205473381426
  4.4928826357155831 29.9807725650131935  8.9388205473381426
 -2.5099127972767032 37.3337077696550992  8.9388205473381426
 -9.5127082302689967 44.6866429742970155  8.9388205473381426
 -16.5155036632612955 52.0395781789389247  8.9388205473381426
 25.8514087063420774 22.2776975887216686  8.9388205473381426
 18.8486132733497840 29.6306327933635814  8.9388205473381426
 11.8458178403574941 36.9835679980054834  8.9388205473381426
  4.8430224073651971 44.3365032026473926  8.9388205473381426
 -2.1597730256270911 51.6894384072893018  8.9388205473381426
 11.1455382970582555  8.2721067227370995  8.9388205473381426
 33.2043439109839866 29.2804930217139585  8.9388205473381426
 26.2015484779916896 36.6334282263558748  8.9388205473381426
 19.1987530449993891 43.9863634309977698  8.9388205473381426
 12.1959576120070992 51.3392986356396932  8.9388205473381426
  5.1931621790148164 58.6922338402815811  8.9388205473381426
 18.4984735017001540 15.2749021557293840  8.9388205473381426
 40.5572791156258887 36.2832884547062520  8.9388205473381426
 33.5544836826336024 43.6362236593481683  8.9388205473381426
 26.5516882496412876 50.9891588639900704  8.9388205473381426
 19.5488928166490155 58.3420940686319938  8.9388205473381426
 32.8542041393343638 14.9247623840797736  8.9388205473381426
 33.9046234542832181 57.9919542969823709  8.9388205473381426
 26.9018280212909175 65.3448895016242943  8.9388205473381426
 40.2071393439762588 21.9275578170720564  8.9388205473381426
 46.2139754828198619 27.9826672542156345  8.2255680102572803
  2.7966437982676595 14.6773559315302808  8.2255680102572803
 -4.2061516347246375 22.0302911361721883  8.2255680102572803
 -11.2089470677169309 29.3832263408141010  8.2255680102572803
 10.1495790029095616 21.6801513645225725  8.2255680102572803
  3.1467835699172610 29.0330865691644817  8.2255680102572803
 -3.8560118630750271 36.3860217738063838  8.2255680102572803
 -10.8588072960673117 43.7389569784482859  8.2255680102572803
 -17.8616027290596193 51.0918921830902093  8.2255680102572803
 24.5053096405437572 21.3300115928729532  8.2255680102572803
 17.5025142075514637 28.6829467975148624  8.2255680102572803
 10.4997187745591738 36.0358820021567823  8.2255680102572803
  3.4969233415668786 43.3888172067986773  8.2255680102572803
 -3.5058720914254184 50.7417524114405865  8.2255680102572803
  9.7994392312599405  7.3244207268883725  8.2255680102572803
 31.8582448451856628 28.3328070258652467  8.2255680102572803
 24.8554494121933764 35.6857422305071665  8.2255680102572803
 17.8526539792010830 43.0386774351490686  8.2255680102572803
 10.8498585462087824 50.3916126397909707  8.2255680102572803
  3.8470631132164961 57.7445478444328728  8.2255680102572803
 17.1523744359018409 14.3272161598806864  8.2255680102572803
 39.2111800498275755 35.3356024588575437  8.2255680102572803
 32.2083846168352750 42.6885376634994458  8.2255680102572803
 25.2055891838429744 50.0414728681413692  8.2255680102572803
 18.2027937508506916 57.3944080727832713  8.2255680102572803
 31.5081050735360400 13.9770763882310582  8.2255680102572803
 32.5585243884848836 57.0442683011336413  8.2255680102572803
 25.5557289554925831 64.3972035057755789  8.2255680102572803
 38.8610402781779243 20.9798718212233410  8.2255680102572803
 45.6730989178029247 28.3668273046171890 10.5391726627905005
  2.2557672332507304 15.0615159819318354 10.5391726627905005
 -4.7470281997415658 22.4144511865737464 10.5391726627905005
 -11.7498236327338592 29.7673863912156520 10.5391726627905005
  9.6087024378926316 22.0643114149241306 10.5391726627905005
  2.6059070049003346 29.4172466195660434 10.5391726627905005
 -4.3968884280919553 36.7701818242079526 10.5391726627905005
 -11.3996838610842381 44.1231170288498618 10.5391726627905005
 -18.4024792940765387 51.4760522334917638 10.5391726627905005
 23.9644330755268342 21.7141716432745113 10.5391726627905005
 16.9616376425345372 29.0671068479164205 10.5391726627905005
  9.9588422095422420 36.4200420525583368 10.5391726627905005
  2.9560467765499556 43.7729772572002389 10.5391726627905005
 -4.0467486564423378 51.1259124618421410 10.5391726627905005
  9.2585626662430158  7.7085807772899280 10.5391726627905005
 31.3173682801687328 28.7169670762668048 10.5391726627905005
 24.3145728471764357 36.0699022809087140 10.5391726627905005
 17.3117774141841423 43.4228374855506232 10.5391726627905005
 10.3089819811918559 50.7757726901925395 10.5391726627905005
  3.3061865481995660 58.1287078948344416 10.5391726627905005
 16.6114978708849179 14.7113762102822232 10.5391726627905005
 38.6703034848106313 35.7197625092590911 10.5391726627905005
 31.6675080518183449 43.0726977139010074 10.5391726627905005
 24.6647126188260444 50.4256329185429166 10.5391726627905005
 17.6619171858337580 57.7785681231848187 10.5391726627905005
 30.9672285085190993 14.3612364386326163 10.5391726627905005
 32.0176478234679607 57.4284283515352030 10.5391726627905005
 25.0148523904756601 64.7813635561770980 10.5391726627905005
 38.3201637131610156 21.3640318716248991 10.5391726627905005
 46.0509364065906794 26.6204965883873932 10.3605800588381403
  2.6336047220384735 13.3151852657020413 10.3605800588381403
 -4.3691907109538199 20.6681204703439505 10.3605800588381403
 39.3982807452479946 48.3291624306635015 10.3605800588381403
  9.9865399266803809 20.3179806986943419 10.3605800588381403
  2.9837444936880804 27.6709159033362440 10.3605800588381403
 -4.0190509393042095 35.0238511079781460 10.3605800588381403
 -11.0218463722965012 42.3767863126200695 10.3605800588381403
 -18.0246418052888053 49.7297215172619858 10.3605800588381403
 24.3422705643145676 19.9678409270447155 10.3605800588381403
 17.3394751313222883 27.3207761316866211 10.3605800588381403
 10.3366796983299878 34.6737113363285374 10.3605800588381403
  3.3338842653376979 42.0266465409704395 10.3605800588381403
 -3.6689111676545956 49.3795817456123487 10.3605800588381403
  9.6364001550307616  5.9622500610601357 10.3605800588381403
 31.6952057689564803 26.9706363600370089 10.3605800588381403
 24.6924103359641833 34.3235715646789217 10.3605800588381403
 17.6896149029718970 41.6765067693208309 10.3605800588381403
 10.6868194699796017 49.0294419739627401 10.3605800588381403
  3.6840240369873101 56.3823771786046422 10.3605800588381403
 16.9893353596726548 12.9650454940524433 10.3605800588381403
 39.0481409735983860 33.9734317930293059 10.3605800588381403
 32.0453455406060925 41.3263669976712151 10.3605800588381403
 25.0425501076137991 48.6793022023131243 10.3605800588381403
 18.0397546746215092 56.0322374069550335 10.3605800588381403
 31.3450659973068504 12.6149057224028187 10.3605800588381403
 32.3954853122557012 55.6820976353054107 10.3605800588381403
 25.3926898792634113 63.0350328399473341 10.3605800588381403
 38.6980012019487631 19.6177011553951210 10.3605800588381403
 -2.4422445161301845  6.6818065139100726 11.3149674742671262
  4.9106906885117221 13.6846019469023688 11.3149674742671262
 -2.0921047444805714 21.0375371515442779 11.3149674742671262
 -9.0949001774728657 28.3904723561861800 11.3149674742671262
 12.2636258931536268 20.6873973798946622 11.3149674742671262
  5.2608304601613316 28.0403325845365643 11.3149674742671262
 -1.7419649728309619 35.3932677891784735 11.3149674742671262
 -8.7447604058232606 42.7462029938203827 11.3149674742671262
 -15.7475558388155559 50.0991381984622990 11.3149674742671262
 26.6193565307878259 20.3372576082450465 11.3149674742671262
 19.6165610977955325 27.6901928128869557 11.3149674742671262
 12.6137656648032390 35.0431280175288649 11.3149674742671262
  5.6109702318109456 42.3960632221707598 11.3149674742671262
 -1.3918252011813426 49.7489984268126832 11.3149674742671262
 11.9134861215040040  6.3316667422604649 11.3149674742671262
 33.9722917354297280 27.3400530412373364 11.3149674742671262
 26.9694963024374417 34.6929882458792491 11.3149674742671262
 19.9667008694451411 42.0459234505211512 11.3149674742671262
 12.9639054364528441 49.3988586551630675 11.3149674742671262
  5.9611100034605613 56.7517938598049625 11.3149674742671262
 19.2664213261459096 13.3344621752527566 11.3149674742671262
 41.3252269400716372 34.3428484742296334 11.3149674742671262
 34.3224315070793509 41.6957836788715355 11.3149674742671262
 27.3196360740870503 49.0487188835134518 11.3149674742671262
 20.3168406410947533 56.4016540881553610 11.3149674742671262
 13.3140452081024598 63.7545892927972773 11.3149674742671262
 34.6725712787289666 56.0515143165057452 11.3149674742671262
 27.6697758457366589 63.4044495211476544 11.3149674742671262
 40.9750871684220002 19.9871178365954378 11.3149674742671262
 -2.7375033885928857  8.4628691083013585 11.3837014144715329
  4.6154318160490213 15.4656645412936520 11.3837014144715329
 -2.3873636169432766 22.8185997459355576 11.3837014144715329
 -9.3901590499355727 30.1715349505774739 11.3837014144715329
 11.9683670206909252 22.4684599742859490 11.3837014144715329
  4.9655715876986353 29.8213951789278582 11.3837014144715329
 -2.0372238452936635 37.1743303835697674 11.3837014144715329
 -9.0400192782859605 44.5272655882116766 11.3837014144715329
 -16.0428147112782433 51.8802007928535858 11.3837014144715329
 26.3240976583251154 22.1183202026363226 11.3837014144715329
 19.3213022253328184 29.4712554072782318 11.3837014144715329
 12.3185067923405374 36.8241906119201445 11.3837014144715329
  5.3157113593482439 44.1771258165620395 11.3837014144715329
 -1.6870840736440549 51.5300610212039629 11.3837014144715329
 11.6182272490412988  8.1127293366517428 11.3837014144715329
 33.6770328629670317 29.1211156356286196 11.3837014144715329
 26.6742374299747382 36.4740508402705288 11.3837014144715329
 19.6714419969824448 43.8269860449124309 11.3837014144715329
 12.6686465639901478 51.1799212495543401 11.3837014144715329
  5.6658511309978650 58.5328564541962422 11.3837014144715329
 18.9711624536832062 15.1155247696440416 11.3837014144715329
 41.0299680676089267 36.1239110686209131 11.3837014144715329
 34.0271726346166474 43.4768462732628294 11.3837014144715329
 27.0243772016243398 50.8297814779047314 11.3837014144715329
 20.0215817686320570 58.1827166825466406 11.3837014144715329
 33.3268930913173946 14.7653849979944241 11.3837014144715329
 34.3773124062662419 57.8325769108970178 11.3837014144715329
 27.3745169732739591 65.1855121155389270 11.3837014144715329
 40.6798282959593038 21.7681804309867104 11.3837014144715329
 46.1415416914679781 28.3900749222319746 12.9843125400445807
  2.7242100069157855 15.0847635995466209 12.9843125400445807
 -4.2785854260765044 22.4376988041885248 12.9843125400445807
 -11.2813808590688005 29.7906340088304376 12.9843125400445807
 10.0771452115576956 22.0875590325389091 12.9843125400445807
  3.0743497785653986 29.4404942371808218 12.9843125400445807
 -3.9284456544268966 36.7934294418227310 12.9843125400445807
 -10.9312410874191883 44.1463646464646331 12.9843125400445807
 -17.9340365204114853 51.4992998511065423 12.9843125400445807
 24.4328758491918769 21.7374192608892898 12.9843125400445807
 17.4300804161995941 29.0903544655312061 12.9843125400445807
 10.4272849832073007 36.4432896701731153 12.9843125400445807
  3.4244895502150055 43.7962248748150245 12.9843125400445807
 -3.5783058827772827 51.1491600794569266 12.9843125400445807
  9.7270054399080692  7.7318283949047117 12.9843125400445807
 31.7858110538337897 28.7402146938815832 12.9843125400445807
 24.7830156208415033 36.0931498985234995 12.9843125400445807
 17.7802201878492063 43.4460851031654016 12.9843125400445807
 10.7774247548569058 50.7990203078073250 12.9843125400445807
  3.7746293218646301 58.1519555124492129 12.9843125400445807
 17.0799406445499677 14.7346238278970105 12.9843125400445807
 39.1387462584756918 35.7430101268738767 12.9843125400445807
 32.1359508254834054 43.0959453315157930 12.9843125400445807
 25.1331553924911120 50.4488805361577022 12.9843125400445807
 18.1303599594988185 57.8018157407995972 12.9843125400445807
 31.4356712821841597 14.3844840562473895 12.9843125400445807
 32.4860905971330141 57.4516759691499814 12.9843125400445807
 25.4832951641407242 64.8046111737919119 12.9843125400445807
 38.7886064868260689 21.3872794892396811 12.9843125400445807
 46.4266069348140675 26.6092198934042123 12.9010930041076843
  3.0092752502618643 13.3039085707188658 12.9010930041076843
 -3.9935201827304319 20.6568437753607697 12.9010930041076843
 -10.9963156157227253 28.0097789800026824 12.9010930041076843
 10.3622104549037690 20.3067040037111610 12.9010930041076843
  3.3594150219114720 27.6596392083530702 12.9010930041076843
 -3.6433804110808161 35.0125744129949723 12.9010930041076843
 -10.6461758440731096 42.3655096176368886 12.9010930041076843
 -17.6489712770654030 49.7184448222787978 12.9010930041076843
 24.7179410925379663 19.9565642320615417 12.9010930041076843
 17.7151456595456729 27.3094994367034438 12.9010930041076843
 10.7123502265533759 34.6624346413453637 12.9010930041076843
  3.7095547935610824 42.0153698459872658 12.9010930041076843
 -3.2932406394312022 49.3683050506291750 12.9010930041076843
 10.0120706832541462  5.9509733660769575 12.9010930041076843
 32.0708762971798720 26.9593596650538352 12.9010930041076843
 25.0680808641875821 34.3122948696957479 12.9010930041076843
 18.0652854311952886 41.6652300743376571 12.9010930041076843
 11.0624899982029898 49.0181652789795592 12.9010930041076843
  4.0596945652107088 56.3711004836214542 12.9010930041076843
 17.3650058878960571 12.9537687990692589 12.9010930041076843
 39.4238115018217812 33.9621550980461393 12.9010930041076843
 32.4210160688294806 41.3150903026880272 12.9010930041076843
 25.4182206358371872 48.6680255073299506 12.9010930041076843
 18.4154252028449008 56.0209607119718456 12.9010930041076843
 11.4126297698526038 63.3738959166137619 12.9010930041076843
 32.7711558404790892 55.6708209403222440 12.9010930041076843
 25.7683604074868029 63.0237561449641461 12.9010930041076843
 39.0736717301721512 19.6064244604119402 12.9010930041076843
 -2.3044107137491960  8.4113367845179905 13.8819834012736898
  5.0485244908927083 15.4141322175102840 13.8819834012736898
 -1.9542709420995825 22.7670674221521914 13.8819834012736898
 -8.9570663750918804 30.1200026267941041 13.8819834012736898
 12.4014596955346121 22.4169276505025792 13.8819834012736898
  5.3986642625423222 29.7698628551444848 13.8819834012736898
 -1.6041311704499783 37.1227980597863976 13.8819834012736898
 -8.6069266034422647 44.4757332644282997 13.8819834012736898
 -15.6097220364345688 51.8286684690702089 13.8819834012736898
 26.7571903331688183 22.0667878788529634 13.8819834012736898
 19.7543949001765249 29.4197230834948726 13.8819834012736898
 12.7515994671842297 36.7726582881367818 13.8819834012736898
  5.7488040341919397 44.1255934927786697 13.8819834012736898
 -1.2539913988003626 51.4785286974206002 13.8819834012736898
 12.0513199238849964  8.0611970128683765 13.8819834012736898
 34.1101255378107169 29.0695833118452533 13.8819834012736898
 27.1073301048184199 36.4225185164871590 13.8819834012736898
 20.1045346718261300 43.7754537211290753 13.8819834012736898
 13.1017392388338312 51.1283889257709774 13.8819834012736898
  6.0989438058415395 58.4813241304128866 13.8819834012736898
 19.4042551285268843 15.0639924458606842 13.8819834012736898
 41.4630607424526190 36.0723787448375504 13.8819834012736898
 34.4602653094603255 43.4253139494794596 13.8819834012736898
 27.4574698764680392 50.7782491541213687 13.8819834012736898
 20.4546744434757493 58.1311843587632637 13.8819834012736898
 33.7599857661610869 14.7138526742110720 13.8819834012736898
 34.8104050811099412 57.7810445871136622 13.8819834012736898
 27.8076096481176442 65.1339797917555643 13.8819834012736898
 41.1129209708030032 21.7166481072033513 13.8819834012736898
 -2.0206200520839244  6.6324838364025185 13.8014337561493683
  5.3323151525579799 13.6352792693948111 13.8014337561493683
 -1.6704802804343144 20.9882144740367238 13.8014337561493683
 -8.6732757134266016 28.3411496786786259 13.8014337561493683
 12.6852503571998874 20.6380747023871010 13.8014337561493683
  5.6824549242075850 27.9910099070290137 13.8014337561493683
 -1.3203405087847013 35.3439451116709193 13.8014337561493683
 -8.3231359417769912 42.6968803163128214 13.8014337561493683
 -15.3259313747692829 50.0498155209547377 13.8014337561493683
 27.0409809948340865 20.2879349307374852 13.8014337561493683
 20.0381855618417930 27.6408701353794015 13.8014337561493683
 13.0353901288494942 34.9938053400213178 13.8014337561493683
  6.0325946958572096 42.3467405446632128 13.8014337561493683
 -0.9702007371350909 49.6996757493051362 13.8014337561493683
 12.3351105855502716  6.2823440647529090 13.8014337561493683
 34.3939161994759885 27.2907303637297787 13.8014337561493683
 27.3911207664837022 34.6436655683716950 13.8014337561493683
 20.3883253334914016 41.9966007730135971 13.8014337561493683
 13.3855299004990975 49.3495359776555063 13.8014337561493683
  6.3827344675068112 56.7024711822974155 13.8014337561493683
 19.6880457901921702 13.2851394977452060 13.8014337561493683
 41.7468514041178906 34.2935257967220721 13.8014337561493683
 34.7440559711256043 41.6464610013639884 13.8014337561493683
 27.7412605381333144 48.9993962060058976 13.8014337561493683
 20.7384651051410209 56.3523314106477926 13.8014337561493683
 13.7356696721487133 63.7052666152897089 13.8014337561493683
 35.0941957427752200 56.0021916389981840 13.8014337561493683
 28.0914003097829266 63.3551268436401074 13.8014337561493683
 41.3967116324682749 19.9377951590878979 13.8014337561493683
 46.9171469804153816 26.6249195845850721 15.3441808095417560
  3.4998152958631827 13.3196082618997185 15.3441808095417560
 -3.5029801371291134 20.6725434665416330 15.3441808095417560
 -10.5057755701214006 28.0254786711835351 15.3441808095417560
 10.8527505005050848 20.3224036948920102 15.3441808095417560
  3.8499550675127896 27.6753388995339193 15.3441808095417560
 -3.1528403654794985 35.0282741041758285 15.3441808095417560
 -10.1556357984717884 42.3812093088177377 15.3441808095417560
 -17.1584312314640783 49.7341445134596327 15.3441808095417560
 25.2084811381392910 19.9722639232424015 15.3441808095417560
 18.2056857051469905 27.3251991278843107 15.3441808095417560
 11.2028902721546988 34.6781343325262199 15.3441808095417560
  4.2000948391624018 42.0310695371681220 15.3441808095417560
 -2.8027005938298846 49.3840047418100383 15.3441808095417560
 10.5026107288554709  5.9666730572578057 15.3441808095417560
 32.5614163427811931 26.9750593562346879 15.3441808095417560
 25.5586209097888997 34.3279945608766042 15.3441808095417560
 18.5558254767966133 41.6809297655185134 15.3441808095417560
 11.5530300438043163 49.0338649701604226 15.3441808095417560
  4.5502346108120229 56.3868001748023104 15.3441808095417560
 17.8555459334973747 12.9694684902501063 15.3441808095417560
 39.9143515474230952 33.9778547892269813 15.3441808095417560
 32.9115561144308089 41.3307899938688905 15.3441808095417560
 25.9087606814385083 48.6837251985108139 15.3441808095417560
 18.9059652484462184 56.0366604031527231 15.3441808095417560
 11.9031698154539178 63.3895956077946181 15.3441808095417560
 33.2616958860804104 55.6865206315030861 15.3441808095417560
 26.2589004530881169 63.0394558361450024 15.3441808095417560
 39.5642117757734724 19.6221241515927858 15.3441808095417560
 -2.6629113852978854  7.3440685503913148 15.9945901650752429
  4.6900238193440176 14.3468639833836100 15.9945901650752429
 -2.3127716136482768 21.6997991880255228 15.9945901650752429
 -9.3155670466405684 29.0527343926674249 15.9945901650752429
 12.0429590239859294 21.3496594163758999 15.9945901650752429
  5.0401635909936324 28.7025946210178091 15.9945901650752429
 -1.9626318419986646 36.0555298256597183 15.9945901650752429
 -8.9654272749909563 43.4084650303016204 15.9945901650752429
 -15.9682227079832444 50.7614002349435438 15.9945901650752429
 26.3986896616201179 20.9995196447262913 15.9945901650752429
 19.3958942286278280 28.3524548493682005 15.9945901650752429
 12.3930987956355327 35.7053900540101097 15.9945901650752429
  5.3903033626432411 43.0583252586520189 15.9945901650752429
 -1.6124920703490577 50.4112604632939281 15.9945901650752429
 11.6928192523363030  6.9939287787416999 15.9945901650752429
 33.7516248662620271 28.0023150777185741 15.9945901650752429
 26.7488294332697407 35.3552502823604868 15.9945901650752429
 19.7460340002774402 42.7081854870023960 15.9945901650752429
 12.7432385672851414 50.0611206916443123 15.9945901650752429
  5.7404431342928568 57.4140558962862144 15.9945901650752429
 19.0457544569782016 13.9967242117340049 15.9945901650752429
 41.1045600709039434 35.0051105107108782 15.9945901650752429
 34.1017646379116428 42.3580457153527874 15.9945901650752429
 27.0989692049193529 49.7109809199946966 15.9945901650752429
 20.0961737719270666 57.0639161246365987 15.9945901650752429
 33.4014850946123971 13.6465844400843963 15.9945901650752429
 34.4519044095612657 56.7137763529869900 15.9945901650752429
 27.4491089765689722 64.0667115576288921 15.9945901650752429
 40.7544202992543063 20.6493798730766827 15.9945901650752429
 46.6483455307466244 28.3133802423234400 15.4210609886066159
  3.2310138461944122 15.0080689196380828 15.4210609886066159
 -3.7717815867978786 22.3610041242799866 15.4210609886066159
 -10.7745770197901756 29.7139393289219029 15.4210609886066159
 10.5839490508363170 22.0108643526303744 15.4210609886066159
  3.5811536178440271 29.3637995572722836 15.4210609886066159
 -3.4216418151482717 36.7167347619141893 15.4210609886066159
 -10.4244372481405634 44.0696699665561056 15.4210609886066159
 -17.4272326811328497 51.4226051711980077 15.4210609886066159
 24.9396796884705232 21.6607245809807623 15.4210609886066159
 17.9368842554782297 29.0136597856226714 15.4210609886066159
 10.9340888224859363 36.3665949902645735 15.4210609886066159
  3.9312933894936393 43.7195301949064756 15.4210609886066159
 -3.0715020434986506 51.0724653995484061 15.4210609886066159
 10.2338092791866995  7.6551337149961771 15.4210609886066159
 32.2926148931124146 28.6635200139730557 15.4210609886066159
 25.2898194601201283 36.0164552186149649 15.4210609886066159
 18.2870240271278419 43.3693904232568670 15.4210609886066159
 11.2842285941355396 50.7223256278987762 15.4210609886066159
  4.2814331611432550 58.0752608325406854 15.4210609886066159
 17.5867444838286033 14.6579291479884759 15.4210609886066159
 39.6455500977543380 35.6663154469653421 15.4210609886066159
 32.6427546647620375 43.0192506516072513 15.4210609886066159
 25.6399592317697369 50.3721858562491676 15.4210609886066159
 18.6371637987774612 57.7251210608910625 15.4210609886066159
 31.9424751214627989 14.3077893763388655 15.4210609886066159
 32.9928944364116532 57.3749812892414610 15.4210609886066159
 25.9900990034193526 64.7279164938833560 15.4210609886066159
 39.2954103261047081 21.3105848093311536 15.4210609886066159
  4.4113168321804430  6.4223124055668031  8.5035493961519037
 11.7642520368223487 13.4251078385590947  8.5035493961519037
  4.7614566038300525 20.7780430432010093  8.5035493961519037
 -2.2413388291622383 28.1309782478429113  8.5035493961519037
 19.1171872414642507 20.4279032715513864  8.5035493961519037
 12.1143918084719573 27.7808384761932956  8.5035493961519037
  5.1115963754796621 35.1337736808352048  8.5035493961519037
 -1.8911990575126207 42.4867088854771069  8.5035493961519037
 -8.8939944905049231 49.8396440901190090  8.5035493961519037
 33.4729178790984676 20.0777634999017742  8.5035493961519037
 26.4701224461061599 27.4306987045436799  8.5035493961519037
 19.4673270131138665 34.7836339091855962  8.5035493961519037
 12.4645315801215713 42.1365691138274912  8.5035493961519037
  5.4617361471292796 49.4895043184694146  8.5035493961519037
 -1.5410592858630139 56.8424395231113024  8.5035493961519037
 40.8258530837403555 27.0805589328940641  8.5035493961519037
 33.8230576507480691 34.4334941375359733  8.5035493961519037
 26.8202622177557757 41.7864293421778825  8.5035493961519037
 19.8174667847634751 49.1393645468197846  8.5035493961519037
 12.8146713517711994 56.4922997514617009  8.5035493961519037
 26.1199826744565371 13.0749680669094808  8.5035493961519037
 -2.5914786008118482 13.7752476102087158  8.5035493961519037
 41.1759928553899712 41.4362895705282668  8.5035493961519037
 34.1731974223976778 48.7892247751701831  8.5035493961519037
 27.1704019894053843 56.1421599798120781  8.5035493961519037
 20.1676065564130873 63.4950951844539944  8.5035493961519037
 -9.2441342621545175 35.4839134524848134  8.5035493961519037
 -16.2469296951468252 42.8368486571267226  8.5035493961519037
 47.8286485167326418 19.7276237282521727  8.5035493961519037
  3.4690074185150412  7.4525250509629117  8.9450047113663498
 10.8219426231569464 14.4553204839552070  8.9450047113663498
  3.8191471901646468 21.8082556885971144  8.9450047113663498
 -3.1836482428276431 29.1611908932390200  8.9450047113663498
 18.1748778277988521 21.4581159169474951  8.9450047113663498
 11.1720823948065568 28.8110511215894078  8.9450047113663498
  4.1692869618142634 36.1639863262313099  8.9450047113663498
 -2.8335084711780265 43.5169215308732191  8.9450047113663498
 -9.8363039041703324 50.8698567355151354  8.9450047113663498
 32.5306084654330405 21.1079761452978794  8.9450047113663498
 25.5278130324407542 28.4609113499397886  8.9450047113663498
 18.5250175994484643 35.8138465545817013  8.9450047113663498
 11.5222221664561726 43.1667817592236034  8.9450047113663498
  4.5194267334638738 50.5197169638655197  8.9450047113663498
 -2.4833686995284161 57.8726521685074218  8.9450047113663498
 39.8835436700749497 28.1107715782901693  8.9450047113663498
 32.8807482370826563 35.4637067829320785  8.9450047113663498
 25.8779528040903628 42.8166419875739734  8.9450047113663498
 18.8751573710980693 50.1695771922158968  8.9450047113663498
 11.8723619381057723 57.5225123968577989  8.9450047113663498
 25.1776732607911278 14.1051807123055912  8.9450047113663498
 -3.5337880144772496 14.8054602556048174  8.9450047113663498
 40.2336834417245655 42.4665022159243719  8.9450047113663498
 33.2308880087322791 49.8194374205662882  8.9450047113663498
 26.2280925757399892 57.1723726252081974  8.9450047113663498
 19.2252971427476886 64.5253078298500924  8.9450047113663498
 -10.1864436758199304 36.5141260978809328  8.9450047113663498
 -17.1892391088122167 43.8670613025228491  8.9450047113663498
 46.8863391030672361 20.7578363736482672  8.9450047113663498
  2.9001240603828733  7.1577444221638835 10.3430320128339819
 10.2530592650247776 14.1605398551561770 10.3430320128339819
  3.2502638320324815 21.5134750597980826 10.3430320128339819
 -3.7525316009598111 28.8664102644399954 10.3430320128339819
 17.6059944696666832 21.1633352881484704 10.3430320128339819
 10.6031990366743827 28.5162704927903796 10.3430320128339819
  3.6004036036820946 35.8692056974322853 10.3430320128339819
 -3.4023918293101953 43.2221409020741874 10.3430320128339819
 -10.4051872623024924 50.5750761067161037 10.3430320128339819
 31.9617251073008859 20.8131955164988547 10.3430320128339819
 24.9589296743085853 28.1661307211407603 10.3430320128339819
 17.9561342413162919 35.5190659257826695 10.3430320128339819
 10.9533388083240020 42.8720011304245858 10.3430320128339819
  3.9505433753317014 50.2249363350664879 10.3430320128339819
 -3.0522520576605743 57.5778715397083971 10.3430320128339819
 39.3146603119427880 27.8159909494911375 10.3430320128339819
 32.3118648789504945 35.1689261541330609 10.3430320128339819
 25.3090694459581940 42.5218613587749630 10.3430320128339819
 18.3062740129659005 49.8747965634168651 10.3430320128339819
 11.3034785799736142 57.2277317680587743 10.3430320128339819
 24.6087899026589696 13.8104000835065630 10.3430320128339819
 -4.1026713726094171 14.5106796268057963 10.3430320128339819
 39.6648000835924037 42.1717215871253543 10.3430320128339819
 32.6620046506001103 49.5246567917672635 10.3430320128339819
 25.6592092176078168 56.8775919964091727 10.3430320128339819
 18.6564137846155091 64.2305272010510748 10.3430320128339819
 -10.7553270339521028 36.2193454690819081 10.3430320128339819
 33.0121444222497047 63.8803874294014520 10.3430320128339819
 46.3174557449350672 20.4630557448492532 10.3430320128339819
  3.9571412174389744  7.2880845502521225 11.4491485172145229
 11.3100764220808827 14.2908799832444195 11.4491485172145229
  4.3072809890885875 21.6438151878863287 11.4491485172145229
 -2.6955144439037069 28.9967503925282344 11.4491485172145229
 18.6630116267227848 21.2936754162367095 11.4491485172145229
 11.6602161937304860 28.6466106208786186 11.4491485172145229
  4.6574207607381926 35.9995458255205278 11.4491485172145229
 -2.3453746722540938 43.3524810301624299 11.4491485172145229
 -9.3481701052463961 50.7054162348043391 11.4491485172145229
 33.0187422643569803 20.9435356445870866 11.4491485172145229
 26.0159468313646869 28.2964708492289958 11.4491485172145229
 19.0131513983723934 35.6494060538709050 11.4491485172145229
 12.0103559653800982 43.0023412585128142 11.4491485172145229
  5.0075605323878101 50.3552764631547163 11.4491485172145229
 -1.9952349006044798 57.7082116677966326 11.4491485172145229
 40.3716774689988824 27.9463310775793872 11.4491485172145229
 33.3688820360066032 35.2992662822212964 11.4491485172145229
 26.3660866030143026 42.6522014868631985 11.4491485172145229
 19.3632911700220021 50.0051366915051005 11.4491485172145229
 12.3604957370297122 57.3580718961470239 11.4491485172145229
 25.6658070597150605 13.9407402115948056 11.4491485172145229
 -3.0456542155533111 14.6410197548940371 11.4491485172145229
 40.7218172406484982 42.3020617152135898 11.4491485172145229
 33.7190218076561976 49.6549969198554990 11.4491485172145229
 26.7162263746639255 57.0079321244974153 11.4491485172145229
 19.7134309416716142 64.3608673291393103 11.4491485172145229
 -9.6983098768959941 36.3496855971701365 11.4491485172145229
 -16.7011053098882947 43.7026208018120457 11.4491485172145229
 47.3744729019911617 20.5933958729374780 11.4491485172145229
  3.3236866686123960  7.1226607552662795 12.8357882634943898
 10.6766218732543070 14.1254561882585730 12.8357882634943898
  3.6738264402620047 21.4783913929004839 12.8357882634943898
 -3.3289689927302861 28.8313265975423896 12.8357882634943898
 18.0295570778962073 21.1282516212508682 12.8357882634943898
 11.0267616449039121 28.4811868258927703 12.8357882634943898
  4.0239662119116222 35.8341220305346866 12.8357882634943898
 -2.9788292210806677 43.1870572351765816 12.8357882634943898
 -9.9816246540729594 50.5399924398184979 12.8357882634943898
 32.3852877155304100 20.7781118496012525 12.8357882634943898
 25.3824922825381165 28.1310470542431617 12.8357882634943898
 18.3796968495458195 35.4839822588850708 12.8357882634943898
 11.3769014165535225 42.8369174635269729 12.8357882634943898
  4.3741059835612184 50.1898526681688892 12.8357882634943898
 -2.6286894494310609 57.5427878728107842 12.8357882634943898
 39.7382229201723050 27.7809072825935424 12.8357882634943898
 32.7354274871800186 35.1338424872354551 12.8357882634943898
 25.7326320541877251 42.4867776918773572 12.8357882634943898
 18.7298366211954175 49.8397128965192664 12.8357882634943898
 11.7270411882031382 57.1926481011611614 12.8357882634943898
 25.0323525108884866 13.7753164166089697 12.8357882634943898
 -3.6791087643798894 14.4755959599081923 12.8357882634943898
 40.0883626918219136 42.1366379202277415 12.8357882634943898
 33.0855672588296272 49.4895731248696578 12.8357882634943898
 26.0827718258373480 56.8425083295115670 12.8357882634943898
 19.0799763928450439 64.1954435341534690 12.8357882634943898
 -10.3317644257225751 36.1842618021842952 12.8357882634943898
 -17.3345598587148579 43.5371970068262044 12.8357882634943898
 46.7410183531645771 20.4279720779516190 12.8357882634943898
  4.3795706042833151  7.2408255183033159 13.9429834756677646
 11.7325058089252181 14.2436209512956093 13.9429834756677646
  4.7297103759329246 21.5965561559375132 13.9429834756677646
 -2.2730850570593688 28.9494913605794260 13.9429834756677646
 19.0854410135671273 21.2464163842879046 13.9429834756677646
 12.0826455805748267 28.5993515889298067 13.9429834756677646
  5.0798501475825351 35.9522867935717088 13.9429834756677646
 -1.9229452854097566 43.3052219982136251 13.9429834756677646
 -8.9257407184020483 50.6581572028555343 13.9429834756677646
 33.4411716512013228 20.8962766126382817 13.9429834756677646
 26.4383762182090294 28.2492118172801980 13.9429834756677646
 19.4355807852167359 35.6021470219220930 13.9429834756677646
 12.4327853522244407 42.9550822265640022 13.9429834756677646
  5.4299899192321490 50.3080174312059256 13.9429834756677646
 -1.5728055137601373 57.6609526358478277 13.9429834756677646
 40.7941068558432249 27.8990720456305752 13.9429834756677646
 33.7913114228509386 35.2520072502724915 13.9429834756677646
 26.7885159898586416 42.6049424549143865 13.9429834756677646
 19.7857205568663410 49.9578776595563099 13.9429834756677646
 12.7829251238740582 57.3108128641982120 13.9429834756677646
 26.0882364465594065 13.8934811796460096 13.9429834756677646
 -2.6232248287089783 14.5937607229452269 13.9429834756677646
 41.1442466274928407 42.2548026832647849 13.9429834756677646
 34.1414511945005330 49.6077378879066870 13.9429834756677646
 27.1386557615082502 56.9606730925485891 13.9429834756677646
 20.1358603285159568 64.3136082971904983 13.9429834756677646
 -9.2758804900516569 36.3024265652213387 13.9429834756677646
 -16.2786759230439415 43.6553617698632479 13.9429834756677646
 47.7969022888355042 20.5461368409886802 13.9429834756677646
  3.7718306235718471  7.0839478879820454 15.2639818234497522
 11.1247658282137518 14.0867433209743425 15.2639818234497522
  4.1219703952214557 21.4396785256162445 15.2639818234497522
 -2.8808250377708369 28.7926137302581573 15.2639818234497522
 18.4777010328556628 21.0895387539666359 15.2639818234497522
 11.4749055998633622 28.4424739586085380 15.2639818234497522
  4.4721101668710688 35.7954091632504472 15.2639818234497522
 -2.5306852661212211 43.1483443678923493 15.2639818234497522
 -9.5334806991135146 50.5012795725342727 15.2639818234497522
 32.8334316704898512 20.7393989823170060 15.2639818234497522
 25.8306362374975542 28.0923341869589152 15.2639818234497522
 18.8278408045052572 35.4452693916008243 15.2639818234497522
 11.8250453715129638 42.7982045962427335 15.2639818234497522
  4.8222499385206774 50.1511398008846498 15.2639818234497522
 -2.1805454944716089 57.5040750055265519 15.2639818234497522
 40.1863668751317533 27.7421944153093030 15.2639818234497522
 33.1835714421394670 35.0951296199512157 15.2639818234497522
 26.1807760091471664 42.4480648245931178 15.2639818234497522
 19.1779805761548765 49.8010000292350341 15.2639818234497522
 12.1751851431625830 57.1539352338769291 15.2639818234497522
 25.4804964658479349 13.7366035493247303 15.2639818234497522
 -3.2309648094204495 14.4368830926239546 15.2639818234497522
 40.5365066467813762 42.0979250529435092 15.2639818234497522
 33.5337112137890827 49.4508602575854326 15.2639818234497522
 26.5309157807967821 56.8037954622273276 15.2639818234497522
 19.5281203478044709 64.1567306668692225 15.2639818234497522
 -9.8836204707631250 36.1455489349000700 15.2639818234497522
 -16.8864159037554096 43.4984841395419721 15.2639818234497522
 47.1891623081240326 20.3892592106674009 15.2639818234497522
  4.6518994305701105  6.5904346769703341  7.5000000000000000
 12.0048346352120170 13.5932301099626294  7.5000000000000000
  5.0020392022197173 20.9461653146045350  7.5000000000000000
 -2.0007562307725735 28.2991005192464407  7.5000000000000000
 19.3577698398539226 20.5960255429549264  7.5000000000000000
 12.3549744068616221 27.9489607475968320  7.5000000000000000
  5.3521789738693339 35.3018959522387377  7.5000000000000000
 -1.6506164591229631 42.6548311568806469  7.5000000000000000
 -8.6534118921152583 50.0077663615225632  7.5000000000000000
 33.7135004774881182 20.2458857713052964  7.5000000000000000
 26.7107050444958247 27.5988209759472127  7.5000000000000000
 19.7079096115035348 34.9517561805891290  7.5000000000000000
 12.7051141785112431 42.3046913852310311  7.5000000000000000
  5.7023187455189444 49.6576265898729403  7.5000000000000000
 -1.3004766874733384 57.0105617945148424  7.5000000000000000
 41.0664356821300203 27.2486812042975970  7.5000000000000000
 34.0636402491377339 34.6016164089395062  7.5000000000000000
 27.0608448161454334 41.9545516135814225  7.5000000000000000
 20.0580493831531363 49.3074868182233246  7.5000000000000000
 13.0552539501608464 56.6604220228652267  7.5000000000000000
 26.3605652728461948 13.2430903383130278  7.5000000000000000
 -2.3508960024221857 13.9433698816122416  7.5000000000000000
 41.4165754537796431 41.6044118419318067  7.5000000000000000
 34.4137800207873283 48.9573470465737159  7.5000000000000000
 27.4109845877950491 56.3102822512156109  7.5000000000000000
 20.4081891548027379 63.6632174558575343  7.5000000000000000
 -9.0035516637648527 35.6520357238883605  7.5000000000000000
 -16.0063470967571533 43.0049709285302626  7.5000000000000000
 48.0692311151222995 19.8957459996556913  7.5000000000000000
  5.2916940730791087  6.4697397989556613  9.0644529715017619
 12.6446292777210161 13.4725352319479565  9.0644529715017619
  5.6418338447287164 20.8254704365898604  9.0644529715017619
 -1.3609615882635779 28.1784056412317767  9.0644529715017619
 19.9975644823629182 20.4753306649402518  9.0644529715017619
 12.9947690493706283 27.8282658695821574  9.0644529715017619
  5.9919736163783348 35.1812010742240631  9.0644529715017619
 -1.0108218166139569 42.5341362788659794  9.0644529715017619
 -8.0136172496062521 49.8870714835078886  9.0644529715017619
 34.3532951199971066 20.1251908932906289  9.0644529715017619
 27.3504996870048274 27.4781260979325381  9.0644529715017619
 20.3477042540125233 34.8310613025744473  9.0644529715017619
 13.3449088210202387 42.1839965072163636  9.0644529715017619
  6.3421133880279363 49.5369317118582586  9.0644529715017619
 -0.6606820449643429 56.8898669165001678  9.0644529715017619
 41.7062303246390158 27.1279863262829117  9.0644529715017619
 34.7034348916467295 34.4809215309248458  9.0644529715017619
 27.7006394586544360 41.8338567355667408  9.0644529715017619
 20.6978440256621425 49.1867919402086500  9.0644529715017619
 13.6950485926698491 56.5397271448505521  9.0644529715017619
 27.0003599153551939 13.1223954602983426  9.0644529715017619
 -1.7111013599131888 13.8226750035975687  9.0644529715017619
 42.0563700962886315 41.4837169639171321  9.0644529715017619
 35.0535746632963310 48.8366521685590413  9.0644529715017619
 28.0507792303040517 56.1895873732009434  9.0644529715017619
 21.0479837973117441 63.5425225778428455  9.0644529715017619
 -8.3637570212558607 35.5313408458736788  9.0644529715017619
 -15.3665524542481435 42.8842760505155951  9.0644529715017619
 48.7090257576312951 19.7750511216410132  9.0644529715017619
  3.9816829450272921  5.4727850849548094  8.5907652569767148
 11.3346181496691933 12.4755805179471011  8.5907652569767148
  4.3318227166769052 19.8285157225890103  8.5907652569767148
 -2.6709727163153953 27.1814509272309266  8.5907652569767148
 18.6875533543110990 19.4783759509393946  8.5907652569767148
 11.6847579213188038 26.8313111555813038  8.5907652569767148
  4.6819624883265103 34.1842463602232201  8.5907652569767148
 -2.3208329446657796 41.5371815648651221  8.5907652569767148
 -9.3236283776580784 48.8901167695070384  8.5907652569767148
 33.0432839919452945 19.1282361792897788  8.5907652569767148
 26.0404885589530082 26.4811713839316880  8.5907652569767148
 19.0376931259607183 33.8341065885735972  8.5907652569767148
 12.0348976929684230 41.1870417932155135  8.5907652569767148
  5.0321022599761278 48.5399769978574227  8.5907652569767148
 -1.9706931730161656 55.8929122024993248  8.5907652569767148
 40.3962191965872037 26.1310316122820723  8.5907652569767148
 33.3934237635949103 33.4839668169239815  8.5907652569767148
 26.3906283306026133 40.8369020215658907  8.5907652569767148
 19.3878328976103234 48.1898372262077999  8.5907652569767148
 12.3850374646180335 55.5427724308496948  8.5907652569767148
 25.6903487873033782 12.1254407462974996  8.5907652569767148
 -3.0211124879649915 12.8257202895967239  8.5907652569767148
 40.7463589682368195 40.4867622499162678  8.5907652569767148
 33.7435635352445331 47.8396974545581912  8.5907652569767148
 26.7407681022522326 55.1926326592000862  8.5907652569767148
 19.7379726692599284 62.5455678638420096  8.5907652569767148
 -9.6737681493076764 34.5343861318728358  8.5907652569767148
 -16.6765635822999734 41.8873213365147450  8.5907652569767148
 27.0909078739018270 69.5483632968342818  8.5907652569767148
  3.9676729782411688  8.4471766085618931  8.9388205473381426
 11.3206081828830776 15.4499720415541884  8.9388205473381426
  4.3178127498907841 22.8029072461960958  8.9388205473381426
 -2.6849826831015129 30.1558424508380050  8.9388205473381426
 18.6735433875249797 22.4527674745464836  8.9388205473381426
 11.6707479545326862 29.8057026791883928  8.9388205473381426
  4.6679525215403839 37.1586378838303020  8.9388205473381426
 -2.3348429114519025 44.5115730884722112  8.9388205473381426
 -9.3376383444441977 51.8645082931141204  8.9388205473381426
 33.0292740251591752 22.1026277028968607  8.9388205473381426
 26.0264785921668924 29.4555629075387699  8.9388205473381426
 19.0236831591746025 36.8084981121806720  8.9388205473381426
 12.0208877261822948 44.1614333168225812  8.9388205473381426
  5.0180922931900120 51.5143685214644975  8.9388205473381426
 18.3234036158753568  8.0970368369122774  8.9388205473381426
 40.3822092298010844 29.1054231358891542  8.9388205473381426
 33.3794137968087909 36.4583583405310634  8.9388205473381426
 26.3766183638164975 43.8112935451729655  8.9388205473381426
 19.3738229308242040 51.1642287498148818  8.9388205473381426
 12.3710274978319141 58.5171639544567839  8.9388205473381426
 25.6763388205172660 15.0998322699045922  8.9388205473381426
 -3.0351224547511189 15.8001118132038094  8.9388205473381426
 40.7323490014507001 43.4611537735233640  8.9388205473381426
 33.7295535684583996 50.8140889781652731  8.9388205473381426
 26.7267581354661097 58.1670241828071752  8.9388205473381426
 19.7239627024738127 65.5199593874491057  8.9388205473381426
 -9.6877781160937992 37.5087776554799035  8.9388205473381426
 -16.6905735490860998 44.8617128601218127  8.9388205473381426
 47.3850046627933637 21.7524879312472663  8.9388205473381426
  2.6215739124428503  7.4994906127131786  8.2255680102572803
  9.9745091170847555 14.5022860457054765  8.2255680102572803
  2.9717136840924629 21.8552212503473768  8.2255680102572803
 -4.0310817488998349 29.2081564549892896  8.2255680102572803
 17.3274443217266594 21.5050814786977682  8.2255680102572803
 10.3246488887343641 28.8580166833396703  8.2255680102572803
  3.3218534557420742 36.2109518879815937  8.2255680102572803
 -3.6809419772502174 43.5638870926234887  8.2255680102572803
 -10.6837374102425162 50.9168222972653979  8.2255680102572803
 31.6831749593608656 21.1549417070481489  8.2255680102572803
 24.6803795263685686 28.5078769116900617  8.2255680102572803
 17.6775840933762609 35.8608121163319638  8.2255680102572803
 10.6747886603839728 43.2137473209738801  8.2255680102572803
  3.6719932273916811 50.5666825256157821  8.2255680102572803
 16.9773045500770436  7.1493508410635673  8.2255680102572803
 39.0361101640027641 28.1577371400404459  8.2255680102572803
 32.0333147310104636 35.5106723446823480  8.2255680102572803
 25.0305192980181772 42.8636075493242572  8.2255680102572803
 18.0277238650258766 50.2165427539661664  8.2255680102572803
 11.0249284320335903 57.5694779586080614  8.2255680102572803
 24.3302397547189457 14.1521462740558697  8.2255680102572803
 -4.3812215205494383 14.8524258173550923  8.2255680102572803
 39.3862499356523728 42.5134677776746486  8.2255680102572803
 32.3834545026600864 49.8664029823165507  8.2255680102572803
 25.3806590696677929 57.2193381869584670  8.2255680102572803
 18.3778636366754924 64.5722733916003762  8.2255680102572803
 -11.0338771818921089 36.5610916596311952  8.2255680102572803
 32.7335942743097092 64.2221336199507533  8.2255680102572803
 46.0389055969950434 20.8048019353985509  8.2255680102572803
  2.0806973474259229  7.8836506631147349 10.5391726627905005
  9.4336325520678290 14.8864460961070328 10.5391726627905005
  2.4308371190755356 22.2393813007489420 10.5391726627905005
 -4.5719583139167570 29.5923165053908441 10.5391726627905005
 16.7865677567097293 21.8892415290993192 10.5391726627905005
  9.7837723237174394 29.2421767337412319 10.5391726627905005
  2.7809768907251513 36.5951119383831340 10.5391726627905005
 -4.2218185422671457 43.9480471430250503 10.5391726627905005
 -11.2246139752594427 51.3009823476669595 10.5391726627905005
 31.1422983943439284 21.5391017574497106 10.5391726627905005
 24.1395029613516421 28.8920369620916162 10.5391726627905005
 17.1367075283593486 36.2449721667335254 10.5391726627905005
 10.1339120953670481 43.5979073713754275 10.5391726627905005
  3.1311166623747582 50.9508425760173509 10.5391726627905005
 16.4364279850601100  7.5335108914651165 10.5391726627905005
 38.4952335989858341 28.5418971904420005 10.5391726627905005
 31.4924381659935406 35.8948323950839026 10.5391726627905005
 24.4896427330012472 43.2477675997258189 10.5391726627905005
 17.4868473000089502 50.6007028043677280 10.5391726627905005
 10.4840518670166709 57.9536380090096230 10.5391726627905005
 23.7893631897020157 14.5363063244574136 10.5391726627905005
 -4.9220980855663727 15.2365858677566468 10.5391726627905005
 38.8453733706354569 42.8976278280761960 10.5391726627905005
 31.8425779376431457 50.2505630327181123 10.5391726627905005
 24.8397825046508665 57.6034982373600144 10.5391726627905005
 17.8369870716585730 64.9564334420019236 10.5391726627905005
 -11.5747537469090531 36.9452517100327427 10.5391726627905005
 32.1927177092927650 64.6062936703523150 10.5391726627905005
 45.4980290319781204 21.1889619858001055 10.5391726627905005
  2.4585348362136670  6.1373199468849426 10.3605800588381403
  9.8114700408555731 13.1401153798772370 10.3605800588381403
  2.8086746078632787 20.4930505845191426 10.3605800588381403
 -4.1941208251290147 27.8459857891610483 10.3605800588381403
 17.1644052454974769 20.1429108128695304 10.3605800588381403
 10.1616098125051764 27.4958460175114361 10.3605800588381403
  3.1588143795128882 34.8487812221533417 10.3605800588381403
 -3.8439810534793981 42.2017164267952438 10.3605800588381403
 -10.8467764864717005 49.5546516314371601 10.3605800588381403
 31.5201358831316831 19.7927710412199147 10.3605800588381403
 24.5173404501393861 27.1457062458618203 10.3605800588381403
 17.5145450171470927 34.4986414505037260 10.3605800588381403
 10.5117495841547886 41.8515766551456352 10.3605800588381403
  3.5089541511625058 49.2045118597875444 10.3605800588381403
 -3.4938412818297984 56.5574470644294394 10.3605800588381403
 38.8730710877735817 26.7955664742122082 10.3605800588381403
 31.8702756547812882 34.1485016788541245 10.3605800588381403
 24.8674802217889948 41.5014368834960194 10.3605800588381403
 17.8646847887967013 48.8543720881379357 10.3605800588381403
 10.8618893558044149 56.2073072927798378 10.3605800588381403
 24.1672006784897526 12.7899756082276372 10.3605800588381403
 -4.5442605967786251 13.4902551515268510 10.3605800588381403
 39.2232108594231903 41.1512971118464179 10.3605800588381403
 32.2204154264308968 48.5042323164883200 10.3605800588381403
 25.2176199934386034 55.8571675211302221 10.3605800588381403
 18.2148245604463135 63.2101027257721313 10.3605800588381403
 -11.1969162581212984 35.1989209938029646 10.3605800588381403
 32.5705551980804984 62.8599629541225084 10.3605800588381403
 45.8758665207658609 19.4426312695702990 10.3605800588381403
  4.7356208026869151  6.5067366280852621 11.3149674742671262
 12.0885560073288172 13.5095320610775573 11.3149674742671262
  5.0857605743365255 20.8624672657194665 11.3149674742671262
 -1.9170348586557697 28.2154024703613793 11.3149674742671262
 19.4414912119707211 20.5123274940698508 11.3149674742671262
 12.4386957789784276 27.8652626987117600 11.3149674742671262
  5.4359003459861341 35.2181979033536692 11.3149674742671262
 -1.5668950870061611 42.5711331079955784 11.3149674742671262
 -8.5696905199984474 49.9240683126374876 11.3149674742671262
 33.7972218496049237 20.1621877224202350 11.3149674742671262
 26.7944264166126302 27.5151229270621513 11.3149674742671262
 19.7916309836203368 34.8680581317040463 11.3149674742671262
 12.7888355506280398 42.2209933363459555 11.3149674742671262
  5.7860401176357499 49.5739285409878789 11.3149674742671262
 -1.2167553153565365 56.9268637456297668 11.3149674742671262
 41.1501570542468258 27.1649831554125250 11.3149674742671262
 34.1473616212545394 34.5179183600544306 11.3149674742671262
 27.1445661882622460 41.8708535646963469 11.3149674742671262
 20.1417707552699383 49.2237887693382561 11.3149674742671262
 13.1389753222776591 56.5767239739801582 11.3149674742671262
 26.4442866449630074 13.1593922894279594 11.3149674742671262
 -2.2671746303053766 13.8596718327271748 11.3149674742671262
 41.5002968258964415 41.5207137930467383 11.3149674742671262
 34.4975013929041410 48.8736489976886475 11.3149674742671262
 27.4947059599118617 56.2265842023305566 11.3149674742671262
 20.4919105269195541 63.5795194069724516 11.3149674742671262
 -8.9198302916480614 35.5683376750032778 11.3149674742671262
 -15.9226257246403495 42.9212728796451941 11.3149674742671262
 48.1529524872390979 19.8120479507706087 11.3149674742671262
  4.4403619302242117  8.2877992224765489 11.3837014144715329
 11.7932971348661209 15.2905946554688406 11.3837014144715329
  4.7905017018738238 22.6435298601107533 11.3837014144715329
 -2.2122937311184696 29.9964650647526625 11.3837014144715329
 19.1462323395080318 22.2933900884611411 11.3837014144715329
 12.1434369065157242 29.6463252931030468 11.3837014144715329
  5.1406414735234307 36.9992604977449489 11.3837014144715329
 -1.8621539594688539 44.3521957023868652 11.3837014144715329
 -8.8649493924611509 51.7051309070287672 11.3837014144715329
 33.5019629771422203 21.9432503168115218 11.3837014144715329
 26.4991675441499268 29.2961855214534310 11.3837014144715329
 19.4963721111576298 36.6491207260953402 11.3837014144715329
 12.4935766781653435 44.0020559307372423 11.3837014144715329
  5.4907812451730464 51.3549911353791586 11.3837014144715329
 18.7960925678584019  7.9376594508269473 11.3837014144715329
 40.8548981817841295 28.9460457498038082 11.3837014144715329
 33.8521027487918360 36.2989809544457103 11.3837014144715329
 26.8493073157995354 43.6519161590876337 11.3837014144715329
 19.8465118828072349 51.0048513637295429 11.3837014144715329
 12.8437164498149485 58.3577865683714450 11.3837014144715329
 26.1490277725003040 14.9404548838192337 11.3837014144715329
 -2.5624335027680849 15.6407344271184545 11.3837014144715329
 41.2050379534337381 43.3017763874380108 11.3837014144715329
 34.2022425204414304 50.6547115920799200 11.3837014144715329
 27.1994470874491476 58.0076467967218221 11.3837014144715329
 20.1966516544568613 65.3605820013637526 11.3837014144715329
 -9.2150891641107684 37.3494002693945575 11.3837014144715329
 -16.2178845971030512 44.7023354740364596 11.3837014144715329
 47.8576936147764016 21.5931105451619025 11.3837014144715329
  2.5491401210909794  7.9068982807295178 12.9843125400445807
  9.9020753257328842 14.9096937137218077 12.9843125400445807
  2.8992798927405934 22.2626289183637240 12.9843125400445807
 -4.1035155402517018 29.6155641230056261 12.9843125400445807
 17.2550105303747898 21.9124891467141012 12.9843125400445807
 10.2522150973824964 29.2654243513560104 12.9843125400445807
  3.2494196643901994 36.6183595559979267 12.9843125400445807
 -3.7533757686020905 43.9712947606398288 12.9843125400445807
 -10.7561712015943876 51.3242299652817380 12.9843125400445807
 31.6107411680089889 21.5623493750644890 12.9843125400445807
 24.6079457350167026 28.9152845797063947 12.9843125400445807
 17.6051503020244091 36.2682197843483110 12.9843125400445807
 10.6023548690321068 43.6211549889902130 12.9843125400445807
  3.5995594360398186 50.9740901936321222 12.9843125400445807
 16.9048707587251705  7.5567585090799057 12.9843125400445807
 38.9636763726508946 28.5651448080567789 12.9843125400445807
 31.9608809396586047 35.9180800126986952 12.9843125400445807
 24.9580855066663148 43.2710152173406044 12.9843125400445807
 17.9552900736740142 50.6239504219825136 12.9843125400445807
 10.9524946406817314 57.9768856266244157 12.9843125400445807
 24.2578059633670762 14.5595539420722044 12.9843125400445807
 -4.4536553119013051 15.2598334853714341 12.9843125400445807
 39.3138161443005103 42.9208754456909816 12.9843125400445807
 32.3110207113082240 50.2738106503329050 12.9843125400445807
 25.3082252783159163 57.6267458549748000 12.9843125400445807
 18.3054298453236335 64.9796810596167091 12.9843125400445807
 -11.1063109732439855 36.9684993276475282 12.9843125400445807
 32.6611604829578255 64.6295412879671005 12.9843125400445807
 45.9664718056431809 21.2122096034148768 12.9843125400445807
  2.8342053644370555  6.1260432519017662 12.9010930041076843
 10.1871405690789647 13.1288386848940615 12.9010930041076843
  3.1843451360866695 20.4817738895359689 12.9010930041076843
 -3.8184502969056293 27.8347090941778745 12.9010930041076843
 17.5400757737208650 20.1316341178863496 12.9010930041076843
 10.5372803407285716 27.4845693225282623 12.9010930041076843
  3.5344849077362799 34.8375045271701680 12.9010930041076843
 -3.4683105252560136 42.1904397318120701 12.9010930041076843
 -10.4711059582483053 49.5433749364539793 12.9010930041076843
 31.8958064113550606 19.7814943462367374 12.9010930041076843
 24.8930109783627671 27.1344295508786360 12.9010930041076843
 17.8902155453704736 34.4873647555205451 12.9010930041076843
 10.8874201123781837 41.8402999601624614 12.9010930041076843
  3.8846246793858832 49.1932351648043706 12.9010930041076843
 -3.1181707536063996 56.5461703694462727 12.9010930041076843
 39.2487416159969698 26.7842897792290273 12.9010930041076843
 32.2459461830046834 34.1372249838709436 12.9010930041076843
 25.2431507500123828 41.4901601885128386 12.9010930041076843
 18.2403553170200787 48.8430953931547407 12.9010930041076843
 11.2375598840278030 56.1960305977966570 12.9010930041076843
 24.5428712067131443 12.7786989132444493 12.9010930041076843
 -4.1685900685552388 13.4789784565436754 12.9010930041076843
 39.5988813876465713 41.1400204168632300 12.9010930041076843
 32.5960859546542849 48.4929556215051321 12.9010930041076843
 25.5932905216619986 55.8458908261470413 12.9010930041076843
 18.5904950886696909 63.1988260307889576 12.9010930041076843
 -10.8212457298979103 35.1876442988197766 12.9010930041076843
 32.9462257263038936 62.8486862591393418 12.9010930041076843
 46.2515370489892419 19.4313545745871359 12.9010930041076843
  4.8734546050679031  8.2362668986931844 13.8819834012736898
 12.2263898097098078 15.2390623316854779 13.8819834012736898
  5.2235943767175090 22.5919975363273871 13.8819834012736898
 -1.7792010562747809 29.9449327409692962 13.8819834012736898
 19.5793250143517135 22.2418577646777678 13.8819834012736898
 12.5765295813594165 29.5947929693196805 13.8819834012736898
  5.5737341483671248 36.9477281739615862 13.8819834012736898
 -1.4290612846251562 44.3006633786034811 13.8819834012736898
 -8.4318567176174568 51.6535985832453974 13.8819834012736898
 33.9350556519859126 21.8917179930281556 13.8819834012736898
 26.9322602189936084 29.2446531976700612 13.8819834012736898
 19.9294647860013256 36.5975884023119704 13.8819834012736898
 12.9266693530090269 43.9505236069538796 13.8819834012736898
  5.9238739200167352 51.3034588115957888 13.8819834012736898
 19.2291852427020906  7.8861271270435704 13.8819834012736898
 41.2879908566278075 28.8945134260204384 13.8819834012736898
 34.2851954236355354 36.2474486306623547 13.8819834012736898
 27.2823999906432242 43.6003838353042568 13.8819834012736898
 20.2796045576509272 50.9533190399461660 13.8819834012736898
 13.2768091246586373 58.3062542445880752 13.8819834012736898
 26.5821204473439963 14.8889225600358692 13.8819834012736898
 -2.1293408279243891 15.5892021033350954 13.8819834012736898
 -9.1321362609166759 22.9421373079770063 13.8819834012736898
 34.6353351952851369 50.6031792682965644 13.8819834012736898
 27.6325397622928470 57.9561144729384665 13.8819834012736898
 20.6297443293005394 65.3090496775803757 13.8819834012736898
 -8.7819964892670761 37.2978679456112019 13.8819834012736898
 -15.7847919222593625 44.6508031502531111 13.8819834012736898
 48.2907862896200939 21.5415782213785398 13.8819834012736898
  5.1572452667331765  6.4574139505777124 13.8014337561493683
 12.5101804713750777 13.4602093835700067 13.8014337561493683
  5.5073850383827869 20.8131445882119195 13.8014337561493683
 -1.4954103946095056 28.1660797928538251 13.8014337561493683
 19.8631156760169887 20.4630048165622966 13.8014337561493683
 12.8603202430246881 27.8159400212042129 13.8014337561493683
  5.8575248100323964 35.1688752258461150 13.8014337561493683
 -1.1452706229598864 42.5218104304880171 13.8014337561493683
 -8.1480660559521851 49.8747456351299334 13.8014337561493683
 34.2188463136511771 20.1128650449126773 13.8014337561493683
 27.2160508806588943 27.4658002495545865 13.8014337561493683
 20.2132554476665973 34.8187354541964993 13.8014337561493683
 13.2104600146743110 42.1716706588384085 13.8014337561493683
  6.2076645816820069 49.5246058634803177 13.8014337561493683
 -0.7951308513102759 56.8775410681222198 13.8014337561493683
 41.5717815182930792 27.1156604779049744 13.8014337561493683
 34.5689860853008000 34.4685956825468907 13.8014337561493683
 27.5661906523084959 41.8215308871887927 13.8014337561493683
 20.5633952193162060 49.1744660918307019 13.8014337561493683
 13.5605997863239089 56.5274012964725969 13.8014337561493683
 26.8659111090092679 13.1100696119203999 13.8014337561493683
 -1.8455501662591032 13.8103491552196296 13.8014337561493683
 41.9219212899427021 41.4713911155391770 13.8014337561493683
 34.9191258569504086 48.8243263201811004 13.8014337561493683
 27.9163304239581187 56.1772615248229954 13.8014337561493683
 20.9135349909658075 63.5301967294648904 13.8014337561493683
 -8.4982058276017938 35.5190149974957379 13.8014337561493683
 -15.5010012605940926 42.8719502021376542 13.8014337561493683
 48.5745769512853727 19.7627252732630687 13.8014337561493683
  3.3247454100383749  6.1417429430826180 15.3441808095417560
 10.6776806146802787 13.1445383760749088 15.3441808095417560
  3.6748851816879853 20.4974735807168180 15.3441808095417560
 -3.3279102513043082 27.8504087853587379 15.3441808095417560
 18.0306158193221862 20.1473338090672094 15.3441808095417560
 11.0278203863298891 27.5002690137091150 15.3441808095417560
  4.0250249533375992 34.8532042183510242 15.3441808095417560
 -2.9777704796546942 42.2061394229929334 15.3441808095417560
 -9.9805659126469894 49.5590746276348426 15.3441808095417560
 32.3863464569563817 19.7971940374175901 15.3441808095417560
 25.3835510239640847 27.1501292420594957 15.3441808095417560
 18.3807555909718019 34.5030644467014085 15.3441808095417560
 11.3779601579795013 41.8559996513433035 15.3441808095417560
  4.3751647249872008 49.2089348559852340 15.3441808095417560
 -2.6276307080050891 56.5618700606271290 15.3441808095417560
 39.7392816615982909 26.7999894704098764 15.3441808095417560
 32.7364862286059974 34.1529246750517999 15.3441808095417560
 25.7336907956137040 41.5058598796936877 15.3441808095417560
 18.7308953626214070 48.8587950843356111 15.3441808095417560
 11.7280999296291277 56.2117302889775203 15.3441808095417560
 25.0334112523144618 12.7943986044253055 15.3441808095417560
 -3.6780500229539026 13.4946781477245334 15.3441808095417560
 40.0894214332479137 41.1557201080440791 15.3441808095417560
 33.0866260002556132 48.5086553126859954 15.3441808095417560
 26.0838305672633197 55.8615905173278975 15.3441808095417560
 19.0810351342710049 63.2145257219698209 15.3441808095417560
 -10.3307056842965999 35.2033439900006329 15.3441808095417560
 33.4367657719052147 62.8643859503201838 15.3441808095417560
 46.7420770945905559 19.4470542657679779 15.3441808095417560
  4.5149539335192124  7.1689986645665096 15.9945901650752429
 11.8678891381611180 14.1717940975588057 15.9945901650752429
  4.8650937051688254 21.5247293022007042 15.9945901650752429
 -2.1377017278234707 28.8776645068426241 15.9945901650752429
 19.2208243428030201 21.1745895305510956 15.9945901650752429
 12.2180289098107231 28.5275247351930048 15.9945901650752429
  5.2152334768184403 35.8804599398349069 15.9945901650752429
 -1.7875619561738496 43.2333951444768161 15.9945901650752429
 -8.7903573891661519 50.5863303491187395 15.9945901650752429
 33.5765549804372299 20.8244497589014870 15.9945901650752429
 26.5737595474449293 28.1773849635433855 15.9945901650752429
 19.5709641144526429 35.5303201681852983 15.9945901650752429
 12.5681686814603548 42.8832553728272075 15.9945901650752429
  5.5653732484680525 50.2361905774691238 15.9945901650752429
 -1.4374221845242410 57.5891257821110187 15.9945901650752429
 40.9294901850791248 27.8272451918937733 15.9945901650752429
 33.9266947520868314 35.1801803965356896 15.9945901650752429
 26.9238993190945379 42.5331156011775917 15.9945901650752429
 19.9211038861022445 49.8860508058194938 15.9945901650752429
 12.9183084531099581 57.2389860104614101 15.9945901650752429
 26.2236197757953100 13.8216543259091953 15.9945901650752429
 -2.4878414994730846 14.5219338692084161 15.9945901650752429
 41.2796299567287406 42.1829758295279689 15.9945901650752429
 34.2768345237364329 49.5359110341698852 15.9945901650752429
 27.2740390907441466 56.8888462388117802 15.9945901650752429
 20.2712436577518460 64.2417814434537036 15.9945901650752429
 -9.1404971608157588 36.2305997114845368 15.9945901650752429
 -16.1432925938080558 43.5835349161264389 15.9945901650752429
 47.9322856180713970 20.4743099872518783 15.9945901650752429
  3.0559439603696070  7.8302036008209805 15.4210609886066159
 10.4088791650115127 14.8329990338132731 15.4210609886066159
  3.4060837320192174 22.1859342384551823 15.4210609886066159
 -3.5967117009730787 29.5388694430970915 15.4210609886066159
 17.7618143696534219 21.8357944668055737 15.4210609886066159
 10.7590189366611249 29.1887296714474758 15.4210609886066159
  3.7562235036688278 36.5416648760893850 15.4210609886066159
 -3.2465719293234638 43.8946000807312942 15.4210609886066159
 -10.2493673623157555 51.2475352853731962 15.4210609886066159
 32.1175450072876174 21.4856546951559508 15.4210609886066159
 25.1147495742953240 28.8385898997978600 15.4210609886066159
 18.1119541413030340 36.1915251044397692 15.4210609886066159
 11.1091587083107228 43.5444603090816713 15.4210609886066159
  4.1063632753184400 50.8973955137235876 15.4210609886066159
 17.4116745980037990  7.4800638291713586 15.4210609886066159
 39.4704802119295124 28.4884501281482372 15.4210609886066159
 32.4676847789372331 35.8413853327901535 15.4210609886066159
 25.4648893459449326 43.1943205374320485 15.4210609886066159
 18.4620939129526391 50.5472557420739719 15.4210609886066159
 11.4592984799603457 57.9001909467158811 15.4210609886066159
 24.7646098026456976 14.4828592621636663 15.4210609886066159
 -3.9468514726226873 15.1831388054628906 15.4210609886066159
 39.8206199835791352 42.8441807657824469 15.4210609886066159
 32.8178245505868489 50.1971159704243632 15.4210609886066159
 25.8150291175945448 57.5500511750662582 15.4210609886066159
 18.8122336846022584 64.9029863797081674 15.4210609886066159
 -10.5995071339653713 36.8918046477389865 15.4210609886066159
 -17.6023025669576612 44.2447398523809099 15.4210609886066159
 46.4732756449217987 21.1355149235063351 15.4210609886066159
 46.7207379927578046 28.2526184773588795 28.5116309339985818
  3.3034063082056075 14.9473071546735312 28.5116309339985818
 -3.6993891247866895 22.3002423593154440 28.5116309339985818
 -10.7021845577789847 29.6531775639573496 28.5116309339985818
 10.6563415128475061 21.9501025876658211 28.5116309339985818
  3.6535460798552126 29.3030377923077339 28.5116309339985818
 -3.3492493531370791 36.6559729969496360 28.5116309339985818
 -10.3520447861293654 44.0089082015915452 28.5116309339985818
 -17.3548402191216624 51.3618434062334757 28.5116309339985818
 25.0120721504816963 21.5999628160162018 28.5116309339985818
 18.0092767174894099 28.9528980206581110 28.5116309339985818
 11.0064812844971183 36.3058332253000273 28.5116309339985818
  4.0036858515048266 43.6587684299419152 28.5116309339985818
 -2.9991095814874633 51.0117036345838386 28.5116309339985818
 10.3062017411978868  7.5943719500316220 28.5116309339985818
 32.3650073551236090 28.6027582490084988 28.5116309339985818
 25.3622119221313156 35.9556934536504187 28.5116309339985818
 18.3594164891390221 43.3086286582923208 28.5116309339985818
 11.3566210561467287 50.6615638629342300 28.5116309339985818
  4.3538256231544317 58.0144990675761321 28.5116309339985818
 17.6591369458397836 14.5971673830239208 28.5116309339985818
 39.7179425597655253 35.6055536820007887 28.5116309339985818
 32.7151471267732177 42.9584888866426979 28.5116309339985818
 25.7123516937809384 50.3114240912846213 28.5116309339985818
 18.7095562607886521 57.6643592959265234 28.5116309339985818
 32.0148675834739791 14.2470276113743033 28.5116309339985818
 33.0652868984228334 57.3142195242769006 28.5116309339985818
 26.0624914654305257 64.6671547289188027 28.5116309339985818
 39.3678027881158812 21.2498230443665896 28.5116309339985818
 47.7037866683493093 27.2612051290352504 28.0701756187841411
  4.2864549837971033 13.9558938063498967 28.0701756187841411
 -2.7163404491951884 21.3088290109918006 28.0701756187841411
 -9.7191358821874854 28.6617642156337133 28.0701756187841411
 11.6393901884390054 20.9586892393421920 28.0701756187841411
  4.6365947554467102 28.3116244439840976 28.0701756187841411
 -2.3662006775455833 35.6645596486260104 28.0701756187841411
 -9.3689961105378696 43.0174948532679124 28.0701756187841411
 -16.3717915435301720 50.3704300579098287 28.0701756187841411
 25.9951208260732081 20.6085494676925691 28.0701756187841411
 18.9923253930809146 27.9614846723344819 28.0701756187841411
 11.9895299600886212 35.3144198769763875 28.0701756187841411
  4.9867345270963312 42.6673550816182896 28.0701756187841411
 -2.0160609058959658 50.0202902862602201 28.0701756187841411
 11.2892504167893897  6.6029586017079875 28.0701756187841411
 33.3480560307151137 27.6113449006848626 28.0701756187841411
 26.3452605977228096 34.9642801053267718 28.0701756187841411
 19.3424651647305197 42.3172153099686739 28.0701756187841411
 12.3396697317382227 49.6701505146105973 28.0701756187841411
  5.3368742987459363 57.0230857192524923 28.0701756187841411
 18.6421856214312882 13.6057540347002863 28.0701756187841411
 40.7009912353570229 34.6141403336771560 28.0701756187841411
 33.6981958023647294 41.9670755383190652 28.0701756187841411
 26.6954003693724289 49.3200107429609815 28.0701756187841411
 19.6926049363801461 56.6729459476028836 28.0701756187841411
 32.9979162590654767 13.2556142630506688 28.0701756187841411
 34.0483355740143310 56.3228061759532679 28.0701756187841411
 27.0455401410220304 63.6757413805951842 28.0701756187841411
 40.3508514637073930 20.2584096960429605 28.0701756187841411
 47.3816226423390816 26.7073692015081825 26.6721483173165055
  3.9642909577868748 13.4020578788228342 26.6721483173165055
 -3.0385044752054178 20.7549930834647363 26.6721483173165055
 -10.0412999081977130 28.1079282881066455 26.6721483173165055
 11.3172261624287813 20.4048533118151241 26.6721483173165055
  4.3144307294364808 27.7577885164570333 26.6721483173165055
 -2.6883647035558074 35.1107237210989425 26.6721483173165055
 -9.6911601365480990 42.4636589257408517 26.6721483173165055
 -16.6939555695403996 49.8165941303827609 26.6721483173165055
 25.6729568000629804 20.0547135401655083 26.6721483173165055
 18.6701613670706834 27.4076487448074104 26.6721483173165055
 11.6673659340783864 34.7605839494493267 26.6721483173165055
  4.6645705010860858 42.1135191540912288 26.6721483173165055
 -2.3382249319062041 49.4664543587331451 26.6721483173165055
 10.9670863907791514  6.0491226741809312 26.6721483173165055
 33.0258920047048861 27.0575089731578018 26.6721483173165055
 26.0230965717125926 34.4104441777997181 26.6721483173165055
 19.0203011387202920 41.7633793824416202 26.6721483173165055
 12.0175057057280075 49.1163145870835223 26.6721483173165055
  5.0147102727357158 56.4692497917254315 26.6721483173165055
 18.3200215954210570 13.0519181071732291 26.6721483173165055
 40.3788272093467810 34.0603044061500881 26.6721483173165055
 33.3760317763545089 41.4132396107920115 26.6721483173165055
 26.3732363433622012 48.7661748154339136 26.6721483173165055
 19.3704409103699149 56.1191100200758299 26.6721483173165055
 12.3676454773776072 63.4720452247177320 26.6721483173165055
 33.7261715480041175 55.7689702484261929 26.6721483173165055
 26.7233761150118170 63.1219054530681163 26.6721483173165055
 40.0286874376971582 19.7045737685159068 26.6721483173165055
 47.5633389455892868 27.7567752260926106 25.5660318129359609
  4.1460072610370817 14.4514639034072623 25.5660318129359609
 -2.8567881719552144 21.8043991080491644 25.5660318129359609
 -9.8595836049475079 29.1573343126910807 25.5660318129359609
 11.4989424656789865 21.4542593363995522 25.5660318129359609
  4.4961470326866912 28.8071945410414649 25.5660318129359609
 -2.5066484003056022 36.1601297456833706 25.5660318129359609
 -9.5094438332978868 43.5130649503252727 25.5660318129359609
 -16.5122392662901873 50.8660001549671961 25.5660318129359609
 25.8546731033131785 21.1041195647499364 25.5660318129359609
 18.8518776703208886 28.4570547693918456 25.5660318129359609
 11.8490822373285916 35.8099899740337619 25.5660318129359609
  4.8462868043363017 43.1629251786756569 25.5660318129359609
 -2.1565086286559882 50.5158603833175732 25.5660318129359609
 11.1488026940293672  7.0985286987653549 25.5660318129359609
 33.2076083079550841 28.1069149977422228 25.5660318129359609
 26.2048128749627978 35.4598502023841391 25.5660318129359609
 19.2020174419704972 42.8127854070260412 25.5660318129359609
 12.1992220089781931 50.1657206116679575 25.5660318129359609
  5.1964265759859067 57.5186558163098596 25.5660318129359609
 18.5017378986712586 14.1013241317576483 25.5660318129359609
 40.5605435125969933 35.1097104307345234 25.5660318129359609
 33.5577480796047070 42.4626456353764326 25.5660318129359609
 26.5549526466124064 49.8155808400183417 25.5660318129359609
 19.5521572136201129 57.1685160446602367 25.5660318129359609
 32.8574685363054542 13.7511843601080344 25.5660318129359609
 33.9078878512543085 56.8183762730106281 25.5660318129359609
 26.9050924182620150 64.1713114776525373 25.5660318129359609
 40.2104037409473705 20.7539797931003278 25.5660318129359609
 47.3672299987521797 27.1321385490178066 24.1793920666560993
  3.9498983141999826 13.8268272263324654 24.1793920666560993
 -3.0528971187923117 21.1797624309743746 24.1793920666560993
 -10.0556925517846025 28.5326976356162803 24.1793920666560993
 11.3028335188418865 20.8296226593247518 24.1793920666560993
  4.3000380858495895 28.1825578639666716 24.1793920666560993
 -2.7027573471427004 35.5354930686085737 24.1793920666560993
 -9.7055527801349939 42.8884282732504900 24.1793920666560993
 -16.7083482131272874 50.2413634778923850 24.1793920666560993
 25.6585641564760820 20.4794828876751431 24.1793920666560993
 18.6557687234837992 27.8324180923170488 24.1793920666560993
 11.6529732904915022 35.1853532969589651 24.1793920666560993
  4.6501778574992052 42.5382885016008601 24.1793920666560993
 -2.3526175754930865 49.8912237062427835 24.1793920666560993
 10.9526937471922636  6.4738920216905651 24.1793920666560993
 33.0114993611179841 27.4822783206674330 24.1793920666560993
 26.0087039281256978 34.8352135253093422 24.1793920666560993
 19.0059084951334043 42.1881487299512443 24.1793920666560993
 12.0031130621411055 49.5410839345931606 24.1793920666560993
  5.0003176291488245 56.8940191392350698 24.1793920666560993
 18.3056289518341693 13.4766874546828639 24.1793920666560993
 40.3644345657598933 34.4850737536597265 24.1793920666560993
 33.3616391327676070 41.8380089583016428 24.1793920666560993
 26.3588436997753064 49.1909441629435378 24.1793920666560993
 19.3560482667830236 56.5438793675854612 24.1793920666560993
 32.6613595894683613 13.1265476830332481 24.1793920666560993
 33.7117789044172156 56.1937395959358241 24.1793920666560993
 26.7089834714249221 63.5466748005777475 24.1793920666560993
 40.0142947941102634 20.1293431160255345 24.1793920666560993
 47.5367301679716974 28.1810062668288133 23.0721968544827192
  4.1193984834195048 14.8756949441434667 23.0721968544827192
 -2.8833969495727887 22.2286301487853741 23.0721968544827192
 -9.8861923825650848 29.5815653534272798 23.0721968544827192
 11.4723336880614113 21.8784903771357619 23.0721968544827192
  4.4695382550691161 29.2314255817776676 23.0721968544827192
 -2.5332571779231792 36.5843607864195803 23.0721968544827192
 -9.5360526109154691 43.9372959910614824 23.0721968544827192
 -16.5388480439077625 51.2902311957033987 23.0721968544827192
 25.8280643256956068 21.5283506054861427 23.0721968544827192
 18.8252688927033134 28.8812858101280483 23.0721968544827192
 11.8224734597110253 36.2342210147699575 23.0721968544827192
  4.8196780267187247 43.5871562194118596 23.0721968544827192
 -2.1831174062735670 50.9400914240537901 23.0721968544827192
 11.1221939164117867  7.5227597395015557 23.0721968544827192
 33.1809995303375089 28.5311460384784397 23.0721968544827192
 26.1782040973452261 35.8840812431203489 23.0721968544827192
 19.1754086643529291 43.2370164477622438 23.0721968544827192
 12.1726132313606357 50.5899516524041530 23.0721968544827192
  5.1698177983683529 57.9428868570460551 23.0721968544827192
 18.4751291210536905 14.5255551724938563 23.0721968544827192
 40.5339347349794252 35.5339414714707260 23.0721968544827192
 33.5311393019871318 42.8868766761126423 23.0721968544827192
 26.5283438689948277 50.2398118807545444 23.0721968544827192
 19.5255484360025449 57.5927470853964536 23.0721968544827192
 32.8308597586878861 14.1754154008442335 23.0721968544827192
 33.8812790736367475 57.2426073137468308 23.0721968544827192
 26.8784836406444470 64.5955425183887542 23.0721968544827192
 40.1837949633297882 21.1782108338365269 23.0721968544827192
 47.3504108473069820 27.5816369434584665 21.7511985067007316
  3.9330791627547743 14.2763256207731164 21.7511985067007316
 -3.0697162702375183 21.6292608254150274 21.7511985067007316
 -10.0725117032298126 28.9821960300569366 21.7511985067007316
 11.2860143673966800 21.2791210537654116 21.7511985067007316
  4.2832189344043794 28.6320562584073173 21.7511985067007316
 -2.7195764985879070 35.9849914630492194 21.7511985067007316
 -9.7223719315801986 43.3379266676911357 21.7511985067007316
 -16.7251673645724992 50.6908618723330520 21.7511985067007316
 25.6417450050308702 20.9289812821157923 21.7511985067007316
 18.6389495720385732 28.2819164867576944 21.7511985067007316
 11.6361541390462868 35.6348516913996036 21.7511985067007316
  4.6333587060539969 42.9877868960415270 21.7511985067007316
 -2.3694367269383037 50.3407221006834291 21.7511985067007316
 10.9358745957470589  6.9233904161312134 21.7511985067007316
 32.9946802096727794 27.9317767151080787 21.7511985067007316
 25.9918847766804895 35.2847119197500092 21.7511985067007316
 18.9890893436881996 42.6376471243918971 21.7511985067007316
 11.9862939106958954 49.9905823290338134 21.7511985067007316
  4.9834984777036127 57.3435175336757084 21.7511985067007316
 18.2888098003889574 13.9261858491235131 21.7511985067007316
 40.3476154143146815 34.9345721481003721 21.7511985067007316
 33.3448199813223880 42.2875073527422813 21.7511985067007316
 26.3420245483300874 49.6404425573842047 21.7511985067007316
 19.3392291153378082 56.9933777620261068 21.7511985067007316
 32.6445404380231494 13.5760460774738920 21.7511985067007316
 33.6949597529720037 56.6432379903764840 21.7511985067007316
 26.6921643199797209 63.9961731950183932 21.7511985067007316
 39.9974756426650515 20.5788415104661802 21.7511985067007316
 46.9003891158409800 28.4847187978342404 29.5151803301504927
  3.4830574312887714 15.1794074751488868 29.5151803301504927
 -3.5197380017035238 22.5323426797907977 29.5151803301504927
 -10.5225334346958199 29.8852778844327069 29.5151803301504927
 10.8359926359306833 22.1822029081411820 29.5151803301504927
  3.8331972029383774 29.5351381127830948 29.5151803301504927
 -3.1695982300539161 36.8880733174249968 29.5151803301504927
 -10.1723936630462077 44.2410085220668989 29.5151803301504927
 -17.1751890960385012 51.5939437267088152 29.5151803301504927
 25.1917232735648717 21.8320631364915627 29.5151803301504927
 18.1889278405725818 29.1849983411334719 29.5151803301504927
 11.1861324075802919 36.5379335457753882 29.5151803301504927
  4.1833369745879967 43.8908687504172832 29.5151803301504927
 -2.8194584584042968 51.2438039550591995 29.5151803301504927
 10.4858528642810587  7.8264722705069785 29.5151803301504927
 32.5446584782067774 28.8348585694838562 29.5151803301504927
 25.5418630452144839 36.1877937741257654 29.5151803301504927
 18.5390676122221940 43.5407289787676746 29.5151803301504927
 11.5362721792298952 50.8936641834095838 29.5151803301504927
  4.5334767462376071 58.2465993880514858 29.5151803301504927
 17.8387880689229554 14.8292677034992888 29.5151803301504927
 39.8975936828486795 35.8376540024761567 29.5151803301504927
 32.8947982498563931 43.1905892071180659 29.5151803301504927
 25.8920028168640926 50.5435244117599751 29.5151803301504927
 18.8892073838718133 57.8964596164018630 29.5151803301504927
 32.1945187065571545 14.4791279318496731 29.5151803301504927
 33.2449380215060160 57.5463198447522615 29.5151803301504927
 26.2421425885137154 64.8992550493941849 29.5151803301504927
 39.5474539111990566 21.4819233648419612 29.5151803301504927
 46.8110286911210522 29.1296367404099428 27.9507273586487344
  3.3936970065688481 15.8243254177245838 27.9507273586487344
 -3.6090984264234471 23.1772606223664965 27.9507273586487344
 -10.6118938594157406 30.5301958270084057 27.9507273586487344
 10.7466322112107520 22.8271208507168737 27.9507273586487344
  3.7438367782184567 30.1800560553587864 27.9507273586487344
 -3.2589586547738367 37.5329912600006850 27.9507273586487344
 -10.2617540877661302 44.8859264646426013 27.9507273586487344
  3.0435572349192173  1.4685947800904000 27.9507273586487344
 25.1023628488449440 22.4769810790672508 27.9507273586487344
 18.0995674158526541 29.8299162837091671 27.9507273586487344
 11.0967719828603659 37.1828514883510763 27.9507273586487344
  4.0939765498680742 44.5357866929929855 27.9507273586487344
 -2.9088188831242316 51.8887218976348947 27.9507273586487344
 10.3964924395611309  8.4713902130826764 27.9507273586487344
 32.4552980534868567 29.4797765120595514 27.9507273586487344
 25.4525026204945632 36.8327117167014677 27.9507273586487344
 18.4497071875022662 44.1856469213433627 27.9507273586487344
 11.4469117545099728 51.5385821259852790 27.9507273586487344
  4.4441163215176900 58.8915173306271740 27.9507273586487344
 17.7494276442030312 15.4741856460749769 27.9507273586487344
 39.8082332581287588 36.4825719450518449 27.9507273586487344
 32.8054378251364653 43.8355071496937541 27.9507273586487344
 25.8026423921441754 51.1884423543356704 27.9507273586487344
 18.7998469591518891 58.5413775589775724 27.9507273586487344
 32.1051582818372125 15.1240458744253576 27.9507273586487344
 33.1555775967860740 58.1912377873279567 27.9507273586487344
 26.1527821637937770 65.5441729919698730 27.9507273586487344
 39.4580934864791359 22.1268413074176600 27.9507273586487344
 45.7513944271366881 27.8697863191382424 28.4244150731737761
  2.3340627425844955 14.5644749964528941 28.4244150731737761
 -4.6687326904077961 21.9174102010948033 28.4244150731737761
 -11.6715281234000940 29.2703454057367125 28.4244150731737761
  9.6869979472264021 21.5672704294451876 28.4244150731737761
  2.6842025142341086 28.9202056340870932 28.4244150731737761
 -4.3185929187581902 36.2731408387290060 28.4244150731737761
 -11.3213883517504801 43.6260760433709081 28.4244150731737761
 -18.3241837847427753 50.9790112480128172 28.4244150731737761
 24.0427285848605976 21.2171306577955718 28.4244150731737761
 17.0399331518683113 28.5700658624374775 28.4244150731737761
 10.0371377188760107 35.9230010670793902 28.4244150731737761
  3.0343422858837155 43.2759362717212923 28.4244150731737761
 -3.9684531471085815 50.6288714763632086 28.4244150731737761
  9.3368581755767739  7.2115397918109903 28.4244150731737761
 31.3956637895025032 28.2199260907878546 28.4244150731737761
 24.3928683565102169 35.5728612954297745 28.4244150731737761
 17.3900729235179199 42.9257965000716837 28.4244150731737761
 10.3872774905256229 50.2787317047135929 28.4244150731737761
  3.3844820575333294 57.6316669093554879 28.4244150731737761
 16.6897933802186884 14.2143352248032819 28.4244150731737761
 38.7485989941444089 35.2227215237801516 28.4244150731737761
 31.7458035611521261 42.5756567284220608 28.4244150731737761
 24.7430081281598220 49.9285919330639700 28.4244150731737761
 17.7402126951675356 57.2815271377058863 28.4244150731737761
 31.0455240178528804 13.8641954531536715 28.4244150731737761
 32.0959433328017170 56.9313873660562635 28.4244150731737761
 25.0931478998094413 64.2843225706981656 28.4244150731737761
 38.3984592224947789 20.8669908861459490 28.4244150731737761
 -2.0487006770494216  7.4026802476838665 28.0763597828123466
  5.3042345275924809 14.4054756806761581 28.0763597828123466
 -1.6985609053998099 21.7584108853180673 28.0763597828123466
 -8.7013563383921024 29.1113460899599765 28.0763597828123466
 12.6571697322343901 21.4082711136684587 28.0763597828123466
  5.6543742992420896 28.7612063183103643 28.0763597828123466
 -1.3484211337501986 36.1141415229522593 28.0763597828123466
 -8.3512165667424938 43.4670767275941827 28.0763597828123466
 -15.3540119997347908 50.8200119322360919 28.0763597828123466
 27.0129003698685821 21.0581313420188394 28.0763597828123466
 20.0101049368762958 28.4110665466607450 28.0763597828123466
 13.0073095038839988 35.7640017513026578 28.0763597828123466
  6.0045140708917124 43.1169369559445599 28.0763597828123466
 -0.9982813621005846 50.4698721605864620 28.0763597828123466
 12.3070299605847708  7.0525404760342507 28.0763597828123466
 34.3658355745104842 28.0609267750111258 28.0763597828123466
 27.3630401415181943 35.4138619796530421 28.0763597828123466
 20.3602447085259044 42.7667971842949370 28.0763597828123466
 13.3574492755336021 50.1197323889368533 28.0763597828123466
  6.3546538425413210 57.4726675935787554 28.0763597828123466
 19.6599651652266623 14.0553359090265566 28.0763597828123466
 41.7187707791523934 35.0637222080034192 28.0763597828123466
 34.7159753461600999 42.4166574126453355 28.0763597828123466
 27.7131799131677994 49.7695926172872447 28.0763597828123466
 20.7103844801755237 57.1225278219291539 28.0763597828123466
 34.0156958028608543 13.7051961373769391 28.0763597828123466
 35.0661151178097157 56.7723880502795311 28.0763597828123466
 28.0633196848174293 64.1253232549214403 28.0763597828123466
 41.3686310075027706 20.7079915703692308 28.0763597828123466
 47.7093827422152614 26.4124896318504696 28.7896123198932088
  4.2920510576630555 13.1071783091651159 28.7896123198932088
 -2.7107443753292397 20.4601135138070234 28.7896123198932088
 -9.7135398083215350 27.8130487184489326 28.7896123198932088
 11.6449862623049611 20.1099737421574076 28.7896123198932088
  4.6421908293126641 27.4629089467993133 28.7896123198932088
 -2.3606046036796258 34.8158441514412189 28.7896123198932088
 -9.3634000366719157 42.1687793560831139 28.7896123198932088
 -16.3661954696642162 49.5217145607250373 28.7896123198932088
 26.0007168999391602 19.7598339705077883 28.7896123198932088
 18.9979214669468668 27.1127691751496940 28.7896123198932088
 11.9951260339545733 34.4657043797916032 28.7896123198932088
  4.9923306009622781 41.8186395844335124 28.7896123198932088
 -2.0104648320300242 49.1715747890754287 28.7896123198932088
 11.2948464906553383  5.7542431045231979 28.7896123198932088
 33.3536521045810659 26.7626294035000818 28.7896123198932088
 26.3508566715887724 34.1155646081420016 28.7896123198932088
 19.3480612385964790 41.4684998127838966 28.7896123198932088
 12.3452658056041855 48.8214350174258129 28.7896123198932088
  5.3424703726118850 56.1743702220677150 28.7896123198932088
 18.6477816952972404 12.7570385375155126 28.7896123198932088
 40.7065873092229751 33.7654248364923788 28.7896123198932088
 33.7037918762306674 41.1183600411342809 28.7896123198932088
 26.7009964432383846 48.4712952457762043 28.7896123198932088
 19.6982010102460805 55.8242304504180993 28.7896123198932088
 12.6954055772537906 63.1771656550600156 28.7896123198932088
 34.0539316478802903 55.4740906787684906 28.7896123198932088
 27.0511362148879826 62.8270258834103927 28.7896123198932088
 40.3564475375733380 19.4096941988581762 28.7896123198932088
 48.0667174665572503 25.8535278284251575 26.4760076673599869
  4.6493857820050453 12.5482165057398056 26.4760076673599869
 -2.3534096509872509 19.9011517103817184 26.4760076673599869
 -9.3562050839795408 27.2540869150236169 26.4760076673599869
 12.0023209866469536 19.5510119387320991 26.4760076673599869
  4.9995255536546530 26.9039471433740047 26.4760076673599869
 -2.0032698793376351 34.2568823480159210 26.4760076673599869
 -9.0060653123299304 41.6098175526578231 26.4760076673599869
 -16.0088607453222309 48.9627527572997394 26.4760076673599869
 26.3580516242811456 19.2008721670824762 26.4760076673599869
 19.3552561912888521 26.5538073717243819 26.4760076673599869
 12.3524607582965551 33.9067425763662982 26.4760076673599869
  5.3496653253042652 41.2596777810082145 26.4760076673599869
 -1.6531301076880300 48.6126129856501237 26.4760076673599869
 11.6521812149973290  5.1952813010979026 26.4760076673599869
 33.7109868289230548 26.2036676000747732 26.4760076673599869
 26.7081913959307613 33.5566028047166895 26.4760076673599869
 19.7053959629384607 40.9095380093585987 26.4760076673599869
 12.7026005299461726 48.2624732140004937 26.4760076673599869
  5.6998050969538845 55.6154084186423958 26.4760076673599869
 19.0051164196392328 12.1980767340901899 26.4760076673599869
 41.0639220335649497 33.2064630330670667 26.4760076673599869
 34.0611266005726492 40.5593982377089759 26.4760076673599869
 27.0583311675803593 47.9123334423508922 26.4760076673599869
 20.0555357345880765 55.2652686469927943 26.4760076673599869
 13.0527403015957759 62.6182038516347035 26.4760076673599869
 34.4112663722222791 54.9151288753431714 26.4760076673599869
 27.4084709392299821 62.2680640799850806 26.4760076673599869
 40.7137822619153269 18.8507323954328712 26.4760076673599869
 46.3408833826182160 26.3160522635584790 26.6546002713123471
  2.9235516980660092 13.0107409408731272 26.6546002713123471
 -4.0792437349262851 20.3636761455150328 26.6546002713123471
 -11.0820391679185803 27.7166113501569527 26.6546002713123471
 10.2764869027079158 20.0135363738654242 26.6546002713123471
  3.2736914697156205 27.3664715785073298 26.6546002713123471
 -3.7291039632766747 34.7194067831492390 26.6546002713123471
 -10.7318993962689682 42.0723419877911411 26.6546002713123471
 -17.7346948292612687 49.4252771924330645 26.6546002713123471
 24.6322175403421113 19.6633966022158084 26.6546002713123471
 17.6294221073498178 27.0163318068577141 26.6546002713123471
 10.6266266743575208 34.3692670114996233 26.6546002713123471
  3.6238312413652292 41.7222022161415325 26.6546002713123471
 -3.3789641916270590 49.0751374207834488 26.6546002713123471
  9.9263471310582947  5.6578057362312268 26.6546002713123471
 31.9851527449840205 26.6661920352081054 26.6546002713123471
 24.9823573119917235 34.0191272398500146 26.6546002713123471
 17.9795618789994265 41.3720624444919167 26.6546002713123471
 10.9767664460071330 48.7249976491338259 26.6546002713123471
  3.9739710130148467 56.0779328537757351 26.6546002713123471
 17.2792823357001915 12.6606011692235221 26.6546002713123471
 39.3380879496259155 33.6689874682003918 26.6546002713123471
 32.3352925166336291 41.0219226728423081 26.6546002713123471
 25.3324970836413215 48.3748578774842244 26.6546002713123471
 18.3297016506490422 55.7277930821261265 26.6546002713123471
 11.3269062176567381 63.0807282867680286 26.6546002713123471
 32.6854322882832236 55.3776533104765036 26.6546002713123471
 25.6826368552909408 62.7305885151184128 26.6546002713123471
 38.9879481779762926 19.3132568305661962 26.6546002713123471
 46.8208721303395805 28.5724210244482677 25.7002128558833576
  3.4035404457873808 15.2671097017629229 25.7002128558833576
 -3.5992549872049144 22.6200449064048357 25.7002128558833576
 -10.6020504201972088 29.9729801110467378 25.7002128558833576
 10.7564756504292838 22.2699051347552199 25.7002128558833576
  3.7536802174369850 29.6228403393971291 25.7002128558833576
 -3.2491152155552978 36.9757755440390241 25.7002128558833576
 -10.2519106485475877 44.3287107486809333 25.7002128558833576
 -17.2547060815398865 51.6816459533228567 25.7002128558833576
 25.1122062880634900 21.9197653631056042 25.7002128558833576
 18.1094108550711894 29.2727005677475134 25.7002128558833576
 11.1066154220789013 36.6256357723894155 25.7002128558833576
  4.1038199890866078 43.9785709770313318 25.7002128558833576
 -2.8989754439056838 51.3315061816732339 25.7002128558833576
 10.4063358787796663  7.9141744971210191 25.7002128558833576
 32.4651414927053921 28.9225607960978905 25.7002128558833576
 25.4623460597131022 36.2754960007398068 25.7002128558833576
 18.4595506267208052 43.6284312053817089 25.7002128558833576
 11.4567551937285010 50.9813664100236252 25.7002128558833576
  4.4539597607362147 58.3343016146655202 25.7002128558833576
 17.7592710834215666 14.9169699301133196 25.7002128558833576
 39.8180766973473013 35.9253562290901840 25.7002128558833576
 32.8152812643550078 43.2782914337320932 25.7002128558833576
 25.8124858313627144 50.6312266383740095 25.7002128558833576
 18.8096903983704138 57.9841618430159116 25.7002128558833576
 32.1150017210557550 14.5668301584636968 25.7002128558833576
 33.1654210360046307 57.6340220713662887 25.7002128558833576
 26.1626256030123230 64.9869572760081979 25.7002128558833576
 39.4679369256976642 21.5696255914559956 25.7002128558833576
 -2.1848442647787714  7.8825770282965379 25.6314789156789615
  5.1680909398631352 14.8853724612888314 25.6314789156789615
 -1.8347044931291601 22.2383076659307406 25.6314789156789615
 -8.8374999261214526 29.5912428705726498 25.6314789156789615
 12.5210261445050399 21.8881678942811249 25.6314789156789615
  5.5182307115127429 29.2411030989230341 25.6314789156789615
 -1.4845647214795488 36.5940383035649432 25.6314789156789615
 -8.4873601544718387 43.9469735082068524 25.6314789156789615
 -15.4901555874641446 51.2999087128487687 25.6314789156789615
 26.8767567821392284 21.5380281226315020 25.6314789156789615
 19.8739613491469456 28.8909633272734112 25.6314789156789615
 12.8711659161546503 36.2438985319153133 25.6314789156789615
  5.8683704831623498 43.5968337365572296 25.6314789156789615
 -1.1344249498299455 50.9497689411991459 25.6314789156789615
 12.1708863728554189  7.5324372566469178 25.6314789156789615
 34.2296919867811411 28.5408235556238026 25.6314789156789615
 27.2268965537888441 35.8937587602657118 25.6314789156789615
 20.2241011207965542 43.2466939649076139 25.6314789156789615
 13.2213056878042643 50.5996291695495302 25.6314789156789615
  6.2185102548119744 57.9525643741914251 25.6314789156789615
 19.5238215774973227 14.5352326896392157 25.6314789156789615
 41.5826271914230574 35.5436189886160960 25.6314789156789615
 34.5798317584307568 42.8965541932580052 25.6314789156789615
 27.5770363254384563 50.2494893978999215 25.6314789156789615
 20.5742408924461628 57.6024246025418165 25.6314789156789615
 33.8795522151315183 14.1850929179895999 25.6314789156789615
 34.9299715300803655 57.2522848308922079 25.6314789156789615
 27.9271760970880791 64.6052200355341029 25.6314789156789615
 41.2324874197734133 21.1878883509819005 25.6314789156789615
 48.1127747228196583 26.3202802393127229 24.0308677901059085
  4.6954430382674541 13.0149689166273728 24.0308677901059085
 -2.3073523947248438 20.3679041212692802 24.0308677901059085
 -9.3101478277171363 27.7208393259111894 24.0308677901059085
 12.0483782429093598 20.0177643496196644 24.0308677901059085
  5.0455828099170663 27.3706995542615736 24.0308677901059085
 -1.9572126230752271 34.7236347589034864 24.0308677901059085
 -8.9600080560675259 42.0765699635453814 24.0308677901059085
 -15.9628034890598158 49.4295051681872835 24.0308677901059085
 26.4041088805435500 19.6676245779700416 24.0308677901059085
 19.4013134475512565 27.0205597826119508 24.0308677901059085
 12.3985180145589577 34.3734949872538635 24.0308677901059085
  5.3957225815666714 41.7264301918957727 24.0308677901059085
 -1.6070728514256221 49.0793653965376819 24.0308677901059085
 11.6982384712597387  5.6620337119854556 24.0308677901059085
 33.7570440851854627 26.6704200109623351 24.0308677901059085
 26.7542486521931764 34.0233552156042549 24.0308677901059085
 19.7514532192008687 41.3762904202461570 24.0308677901059085
 12.7486577862085682 48.7292256248880662 24.0308677901059085
  5.7458623532162889 56.0821608295299683 24.0308677901059085
 19.0511736759016408 12.6648291449777588 24.0308677901059085
 41.1099792898273577 33.6732154439546321 24.0308677901059085
 34.1071838568350714 41.0261506485965413 24.0308677901059085
 27.1043884238427779 48.3790858532384647 24.0308677901059085
 20.1015929908504951 55.7320210578803739 24.0308677901059085
 13.0987975578581874 63.0849562625222617 24.0308677901059085
 34.4573236284846729 55.3818812862307368 24.0308677901059085
 27.4545281954924008 62.7348164908726460 24.0308677901059085
 40.7598395181777349 19.3174848063204330 24.0308677901059085
 46.3479345929289082 26.6918258523836407 24.1140873260427995
  2.9306029083767022 13.3865145296982870 24.1140873260427995
 -4.0721925246155957 20.7394497343401945 24.1140873260427995
 -11.0749879576078918 28.0923849389821072 24.1140873260427995
 10.2835381130186079 20.3893099626905823 24.1140873260427995
  3.2807426800263091 27.7422451673324915 24.1140873260427995
 -3.7220527529659826 35.0951803719743936 24.1140873260427995
 -10.7248481859582725 42.4481155766163099 24.1140873260427995
 -17.7276436189505660 49.8010507812582119 24.1140873260427995
 24.6392687506528034 20.0391701910409665 24.1140873260427995
 17.6364733176605135 27.3921053956828757 24.1140873260427995
 10.6336778846682165 34.7450406003247849 24.1140873260427995
  3.6308824516759195 42.0979758049666870 24.1140873260427995
 -3.3719129813163740 49.4509110096086104 24.1140873260427995
  9.9333983413689797  6.0335793250563823 24.1140873260427995
 31.9922039552947126 27.0419656240332529 24.1140873260427995
 24.9894085223024192 34.3949008286751692 24.1140873260427995
 17.9866130893101221 41.7478360333170713 24.1140873260427995
 10.9838176563178269 49.1007712379589805 24.1140873260427995
  3.9810222233255388 56.4537064426008897 24.1140873260427995
 17.2863335460108907 13.0363747580486802 24.1140873260427995
 39.3451391599366147 34.0447610570255534 24.1140873260427995
 32.3423437269443212 41.3976962616674555 24.1140873260427995
 25.3395482939520207 48.7506314663093647 24.1140873260427995
 18.3367528609597379 56.1035666709512739 24.1140873260427995
 31.6420641836450791 12.6862349863990627 24.1140873260427995
 32.6924834985939228 55.7534268993016724 24.1140873260427995
 25.6896880656016329 63.1063621039435816 24.1140873260427995
 38.9949993882869776 19.6890304193913650 24.1140873260427995
 -2.2152014018886841  8.3176670070644523 23.1331969288767993
  5.1377338027532211 15.3204624400567440 23.1331969288767993
 -1.8650616302390732 22.6733976446986532 23.1331969288767993
 -8.8678570632313694 30.0263328493405695 23.1331969288767993
 12.4906690073951268 22.3232578730490410 23.1331969288767993
  5.4878735744028297 29.6761930776909502 23.1331969288767993
 -1.5149218585894637 37.0291282823328629 23.1331969288767993
 -8.5177172915817554 44.3820634869747579 23.1331969288767993
 -15.5205127245740577 51.7349986916166742 23.1331969288767993
 26.8463996450293294 21.9731181013994252 23.1331969288767993
 19.8436042120370324 29.3260533060413380 23.1331969288767993
 12.8408087790447389 36.6789885106832401 23.1331969288767993
  5.8380133460524473 44.0319237153251493 23.1331969288767993
 -1.1647820869398480 51.3848589199670656 23.1331969288767993
 12.1405292357455057  7.9675272354148436 23.1331969288767993
 34.1993348496712315 28.9759135343917151 23.1331969288767993
 27.1965394166789309 36.3288487390336314 23.1331969288767993
 20.1937439836866375 43.6817839436755406 23.1331969288767993
 13.1909485506943422 51.0347191483174498 23.1331969288767993
  6.1881531177020648 58.3876543529593377 23.1331969288767993
 19.4934644403874060 14.9703226684071407 23.1331969288767993
 41.5522700543131407 35.9787089673840086 23.1331969288767993
 34.5494746213208330 43.3316441720259320 23.1331969288767993
 27.5466791883285431 50.6845793766678412 23.1331969288767993
 20.5438837553362639 58.0375145813097433 23.1331969288767993
 33.8491950780216015 14.6201828967575249 23.1331969288767993
 34.8996143929704488 57.6873748096601133 23.1331969288767993
 27.8968189599781553 65.0403100143020225 23.1331969288767993
 41.2021302826635107 21.6229783297498130 23.1331969288767993
 46.7921629197802034 28.9959487052766569 23.2137465740011208
  3.3748312352279886 15.6906373825913015 23.2137465740011208
 -3.6279641977643058 23.0435725872332142 23.2137465740011208
 -10.6307596307565948 30.3965077918751234 23.2137465740011208
 10.7277664398698924 22.6934328155835985 23.2137465740011208
  3.7249710068775936 30.0463680202255041 23.2137465740011208
 -3.2778244261146998 37.3993032248674169 23.2137465740011208
 -10.2806198591069826 44.7522384295093261 23.2137465740011208
  3.0246914635783666  1.3349067449571086 23.2137465740011208
 25.0834970775040915 22.3432930439339827 23.2137465740011208
 18.0807016445118052 29.6962282485758848 23.2137465740011208
 11.0779062115195117 37.0491634532178082 23.2137465740011208
  4.0751107785272147 44.4020986578597103 23.2137465740011208
 -2.9276846544650823 51.7550338625016266 23.2137465740011208
 10.3776266682202802  8.3377021779493994 23.2137465740011208
 32.4364322821459865 29.3460884769262691 23.2137465740011208
 25.4336368491537108 36.6990236815681854 23.2137465740011208
 18.4308414161614067 44.0519588862100804 23.2137465740011208
 11.4280459831691168 51.4048940908519967 23.2137465740011208
  4.4252505501768233 58.7578292954939059 23.2137465740011208
 17.7305618728621752 15.3404976109416928 23.2137465740011208
 39.7893674867878957 36.3488839099185697 23.2137465740011208
 32.7865720537956093 43.7018191145604717 23.2137465740011208
 25.7837766208033123 51.0547543192023880 23.2137465740011208
 18.7809811878110295 58.4076895238442972 23.2137465740011208
 32.0862925104963779 14.9903578392920842 23.2137465740011208
 33.1367118254452251 58.0575497521946815 23.2137465740011208
 26.1339163924529281 65.4104849568365978 23.2137465740011208
 39.4392277151382871 21.9931532722843812 23.2137465740011208
 46.3875301725502780 27.1810172328434412 21.6709995206087314
  2.9701984879980685 13.8757059101580893 21.6709995206087314
 -4.0325969449942249 21.2286411148000020 21.6709995206087314
 -11.0353923779865166 28.5815763194419006 21.6709995206087314
 10.3231336926399742 20.8785013431503828 21.6709995206087314
  3.3203382596476754 28.2314365477922991 21.6709995206087314
 -3.6824571733446128 35.5843717524342011 21.6709995206087314
 -10.6852526063368991 42.9373069570760961 21.6709995206087314
 -17.6880480393292032 50.2902421617180124 21.6709995206087314
 24.6788643302741733 20.5283615715007670 21.6709995206087314
 17.6760688972818798 27.8812967761426762 21.6709995206087314
 10.6732734642895846 35.2342319807845925 21.6709995206087314
  3.6704780312972929 42.5871671854264946 21.6709995206087314
 -3.3323174016950041 49.9401023900684038 21.6709995206087314
  9.9729939209903495  6.5227707055161854 21.6709995206087314
 32.0317995349160825 27.5311570044930605 21.6709995206087314
 25.0290041019237890 34.8840922091349697 21.6709995206087314
 18.0262086689314884 42.2370274137768718 21.6709995206087314
 11.0234132359391914 49.5899626184187952 21.6709995206087314
  4.0206178029469122 56.9428978230606901 21.6709995206087314
 17.3259291256322570 13.5255661385084842 21.6709995206087314
 39.3847347395579845 34.5339524374853539 21.6709995206087314
 32.3819393065656840 41.8868876421272560 21.6709995206087314
 25.3791438735733976 49.2398228467691723 21.6709995206087314
 18.3763484405810971 56.5927580514110673 21.6709995206087314
 31.6816597632664525 13.1754263668588685 21.6709995206087314
 32.7320790782153068 56.2426182797614587 21.6709995206087314
 25.7292836452229992 63.5955534844033679 21.6709995206087314
 39.0345949679083617 20.1782217998511548 21.6709995206087314
 47.4715888592437096 28.3197302829540973 21.0205901650752409
  4.0542571746915055 15.0144189602687455 21.0205901650752409
 -2.9485382583007906 22.3673541649106546 21.0205901650752409
 -9.9513336912930797 29.7202893695525709 21.0205901650752409
 11.4071923793334147 22.0172143932610425 21.0205901650752409
  4.4043969463411141 29.3701495979029481 21.0205901650752409
 -2.5983984866511758 36.7230848025448608 21.0205901650752409
 -9.6011939196434710 44.0760200071867843 21.0205901650752409
 -16.6039893526357609 51.4289552118286792 21.0205901650752409
 25.7629230169676049 21.6670746216114196 21.0205901650752409
 18.7601275839753185 29.0200098262533395 21.0205901650752409
 11.7573321509830269 36.3729450308952380 21.0205901650752409
  4.7545367179907263 43.7258802355371472 21.0205901650752409
 -2.2482587150015672 51.0788154401790706 21.0205901650752409
 11.0570526076837883  7.6614837556268478 21.0205901650752409
 33.1158582216095212 28.6698700546037166 21.0205901650752409
 26.1130627886172135 36.0228052592456294 21.0205901650752409
 19.1102673556249343 43.3757404638875315 21.0205901650752409
 12.1074719226326355 50.7286756685294478 21.0205901650752409
  5.1046764896403509 58.0816108731713570 21.0205901650752409
 18.4099878123256886 14.6642791886191475 21.0205901650752409
 40.4687934262514375 35.6726654875960136 21.0205901650752409
 33.4659979932591369 43.0256006922379299 21.0205901650752409
 26.4632025602668399 50.3785358968798249 21.0205901650752409
 19.4604071272745358 57.7314711015217341 21.0205901650752409
 32.7657184499598912 14.3141394169695353 21.0205901650752409
 33.8161377649087456 57.3813313298721184 21.0205901650752409
 26.8133423319164557 64.7342665345140347 21.0205901650752409
 40.1186536546018004 21.3169348499618216 21.0205901650752409
 48.0608786779769019 26.8302204377316187 21.5941193415438732
  4.6435469934247076 13.5249091150462704 21.5941193415438732
 -2.3592484395675886 20.8778443196881796 21.5941193415438732
 -9.3620438725598785 28.2307795243300852 21.5941193415438732
 11.9964821980666159 20.5277045480385603 21.5941193415438732
  4.9936867650743206 27.8806397526804695 21.5941193415438732
 -2.0091086679179728 35.2335749573223751 21.5941193415438732
 -9.0119041009102610 42.5865101619642843 21.5941193415438732
 -16.0146995339025580 49.9394453666061935 21.5941193415438732
 26.3522128357008185 20.1775647763889481 21.5941193415438732
 19.3494174027085215 27.5304999810308608 21.5941193415438732
 12.3466219697162263 34.8834351856727736 21.5941193415438732
  5.3438265367239293 42.2363703903146686 21.5941193415438732
 -1.6589688962683553 49.5893055949565920 21.5941193415438732
 11.6463424264169966  6.1719739104043603 21.5941193415438732
 33.7051480403427064 27.1803602093812380 21.5941193415438732
 26.7023526073504200 34.5332954140231507 21.5941193415438732
 19.6995571743581195 41.8862306186650528 21.5941193415438732
 12.6967617413658314 49.2391658233069762 21.5941193415438732
  5.6939663083735468 56.5921010279488712 21.5941193415438732
 18.9992776310588951 13.1747693433966688 21.5941193415438732
 41.0580832449846298 34.1831556423735350 21.5941193415438732
 34.0552878119923292 41.5360908470154442 21.5941193415438732
 27.0524923790000429 48.8890260516573534 21.5941193415438732
 20.0496969460077459 56.2419612562992555 21.5941193415438732
 13.0469015130154524 63.5948964609411789 21.5941193415438732
 34.4054275836419521 55.8918214846496468 21.5941193415438732
 27.4026321506496409 63.2447566892915631 21.5941193415438732
 40.7079434733350141 19.8274250047393465 21.5941193415438732
  3.1283364223808006  7.7694418358564281 28.5116309339985818
 10.4812716270227035 14.7722372688487198 28.5116309339985818
  3.4784761940304101 22.1251724734906325 28.5116309339985818
 -3.5243192389618843 29.4781076781325382 28.5116309339985818
 17.8342068316646056 21.7750327018410204 28.5116309339985818
 10.8314113986723122 29.1279679064829295 28.5116309339985818
  3.8286159656800169 36.4809031111248387 28.5116309339985818
 -3.1741794673122712 43.8338383157667408 28.5116309339985818
 -10.1769749003045700 51.1867735204086571 28.5116309339985818
 32.1899374692988118 21.4248929301913975 28.5116309339985818
 25.1871420363065184 28.7778281348333067 28.5116309339985818
 18.1843466033142249 36.1307633394752159 28.5116309339985818
 11.1815511703219315 43.4836985441171251 28.5116309339985818
  4.1787557373296380 50.8366337487590414 28.5116309339985818
 17.4840670600149899  7.4193020642068159 28.5116309339985818
 39.5428726739407139 28.4276883631836874 28.5116309339985818
 32.5400772409484276 35.7806235678256002 28.5116309339985818
 25.5372818079561235 43.1335587724675094 28.5116309339985818
 18.5344863749638407 50.4864939771094114 28.5116309339985818
 11.5316909419715437 57.8394291817513277 28.5116309339985818
 24.8370022646568884 14.4220974971991112 28.5116309339985818
 -3.8744590106114876 15.1223770404983426 28.5116309339985818
 39.8930124455903297 42.7834190008179007 28.5116309339985818
 32.8902170125980220 50.1363542054597957 28.5116309339985818
 25.8874215796057463 57.4892894101017120 28.5116309339985818
 18.8846261466134386 64.8422246147435999 28.5116309339985818
 -10.5271146719541786 36.8310428827744474 28.5116309339985818
 -17.5299101049464738 44.1839780874163566 28.5116309339985818
 46.5456681069329932 21.0747531585417853 28.5116309339985818
  4.1113850979722955  6.7780284875327936 28.0701756187841411
 11.4643203026142046 13.7808239205250871 28.0701756187841411
  4.4615248696219032 21.1337591251669963 28.0701756187841411
 -2.5412705633703876 28.4866943298088984 28.0701756187841411
 18.8172555072561032 20.7836193535173770 28.0701756187841411
 11.8144600742638097 28.1365545581592933 28.0701756187841411
  4.8116646412715163 35.4894897628012060 28.0701756187841411
 -2.1911307917207754 42.8424249674431081 28.0701756187841411
 -9.1939262247130724 50.1953601720850244 28.0701756187841411
 33.1729861448903094 20.4334795818677613 28.0701756187841411
 26.1701907118980088 27.7864147865096669 28.0701756187841411
 19.1673952789057189 35.1393499911515832 28.0701756187841411
 12.1645998459134290 42.4922851957934853 28.0701756187841411
  5.1618044129211320 49.8452204004354016 28.0701756187841411
 -1.8409910200711614 57.1981556050773037 28.0701756187841411
 40.5259213495322044 27.4362750148600512 28.0701756187841411
 33.5231259165399038 34.7892102195019604 28.0701756187841411
 26.5203304835476139 42.1421454241438695 28.0701756187841411
 19.5175350505553205 49.4950806287857858 28.0701756187841411
 12.5147396175630377 56.8480158334276950 28.0701756187841411
 25.8200509402483824 13.4306841488754856 28.0701756187841411
 -2.8914103350199949 14.1309636921746993 28.0701756187841411
 40.8760611211818130 41.7920056524942538 28.0701756187841411
 33.8732656881895338 49.1449408571361772 28.0701756187841411
 26.8704702551972403 56.4978760617780722 28.0701756187841411
 19.8676748222049362 63.8508112664199814 28.0701756187841411
 -9.5440659963626686 35.8396295344508147 28.0701756187841411
 -16.5468614293549692 43.1925647390927310 28.0701756187841411
 47.5287167825244907 20.0833398102181526 28.0701756187841411
  3.7892210719620696  6.2241925600057293 26.6721483173165055
 11.1421562766039735 13.2269879929980227 26.6721483173165055
  4.1393608436116818 20.5799231976399319 26.6721483173165055
 -2.8634345893806161 27.9328584022818482 26.6721483173165055
 18.4950914812458826 20.2297834259903198 26.6721483173165055
 11.4922960482535750 27.5827186306322183 26.6721483173165055
  4.4895006152612886 34.9356538352741310 26.6721483173165055
 -2.5132948177310013 42.2885890399160331 26.6721483173165055
 -9.5160902507233018 49.6415242445579494 26.6721483173165055
 32.8508221188800746 19.8796436543406969 26.6721483173165055
 25.8480266858877883 27.2325788589826097 26.6721483173165055
 18.8452312528954877 34.5855140636245153 26.6721483173165055
 11.8424358199032067 41.9384492682664174 26.6721483173165055
  4.8396403869109079 49.2913844729083337 26.6721483173165055
 -2.1631550460813855 56.6443196775502429 26.6721483173165055
 40.2037573235219696 26.8824390873329868 26.6721483173165055
 33.2009618905296904 34.2353742919748996 26.6721483173165055
 26.1981664575373934 41.5883094966168017 26.6721483173165055
 19.1953710245451106 48.9412447012587180 26.6721483173165055
 12.1925755915528100 56.2941799059006129 26.6721483173165055
 25.4978869142381619 12.8768482213484141 26.6721483173165055
 -3.2135743610302234 13.5771277646476385 26.6721483173165055
 40.5538970951715996 41.2381697249672001 26.6721483173165055
 33.5511016621792990 48.5911049296091022 26.6721483173165055
 26.5483062291870162 55.9440401342510114 26.6721483173165055
 19.5455107961947014 63.2969753388929135 26.6721483173165055
 -9.8662300223729122 35.2857936069237397 26.6721483173165055
 -16.8690254553651968 42.6387288115656560 26.6721483173165055
 47.2065527565142631 19.5295038826910847 26.6721483173165055
  3.9709373752122712  7.2735985845901592 25.5660318129359609
 11.3238725798541768 14.2763940175824526 25.5660318129359609
  4.3210771468618843 21.6293292222243636 25.5660318129359609
 -2.6817182861304092 28.9822644268662728 25.5660318129359609
 18.6768077844960843 21.2791894505747479 25.5660318129359609
 11.6740123515037872 28.6321246552166571 25.5660318129359609
  4.6712169185114938 35.9850598598585663 25.5660318129359609
 -2.3315785144807979 43.3379950645004612 25.5660318129359609
 -9.3343739474730860 50.6909302691423775 25.5660318129359609
 33.0325384221302727 20.9290496789251250 25.5660318129359609
 26.0297429891379863 28.2819848835670342 25.5660318129359609
 19.0269475561456858 35.6349200882089363 25.5660318129359609
 12.0241521231534048 42.9878552928508455 25.5660318129359609
  5.0213566901610989 50.3407904974927760 25.5660318129359609
 -1.9814387428311804 57.6937257021346710 25.5660318129359609
 40.3854736267721748 27.9318451119174185 25.5660318129359609
 33.3826781937798955 35.2847803165593348 25.5660318129359609
 26.3798827607875950 42.6377155212012440 25.5660318129359609
 19.3770873277952944 49.9906507258431461 25.5660318129359609
 12.3742918948030116 57.3435859304850482 25.5660318129359609
 25.6796032174883599 13.9262542459328458 25.5660318129359609
 -3.0318580577800209 14.6265337892320684 25.5660318129359609
 40.7356133984217976 42.2875757495516211 25.5660318129359609
 33.7328179654295113 49.6405109541935445 25.5660318129359609
 26.7300225324372143 56.9934461588354324 25.5660318129359609
 19.7272270994449030 64.3463813634773487 25.5660318129359609
 -9.6845137191227018 36.3351996315081820 25.5660318129359609
 -16.6873091521149917 43.6881348361500841 25.5660318129359609
 47.3882690597644540 20.5789099072755235 25.5660318129359609
  3.7748284283751756  6.6489619075153614 24.1793920666560993
 11.1277636330170822 13.6517573405076575 24.1793920666560993
  4.1249682000247843 21.0046925451495667 24.1793920666560993
 -2.8778272329675083 28.3576277497914795 24.1793920666560993
 18.4806988376589878 20.6545527734999474 24.1793920666560993
 11.4779034046666926 28.0074879781418602 24.1793920666560993
  4.4751079716743973 35.3604231827837694 24.1793920666560993
 -2.5276874613178979 42.7133583874256786 24.1793920666560993
 -9.5304828943101878 50.0662935920675807 24.1793920666560993
 32.8364294752931869 20.3044130018503246 24.1793920666560993
 25.8336340423008934 27.6573482064922445 24.1793920666560993
 18.8308386093085929 35.0102834111341537 24.1793920666560993
 11.8280431763163065 42.3632186157760415 24.1793920666560993
  4.8252477433240131 49.7161538204179578 24.1793920666560993
 -2.1775476896682804 57.0690890250598670 24.1793920666560993
 40.1893646799350819 27.3072084348426216 24.1793920666560993
 33.1865692469427955 34.6601436394845379 24.1793920666560993
 26.1837738139504950 42.0130788441264400 24.1793920666560993
 19.1809783809582015 49.3660140487683492 24.1793920666560993
 12.1781829479659152 56.7189492534102513 24.1793920666560993
 25.4834942706512635 13.3016175688580525 24.1793920666560993
 -3.2279670046171192 14.0018971121572697 24.1793920666560993
 40.5395044515847047 41.6629390724768314 24.1793920666560993
 33.5367090185923971 49.0158742771187406 24.1793920666560993
 26.5339135856001178 56.3688094817606427 24.1793920666560993
 19.5311181526078173 63.7217446864025376 24.1793920666560993
 -9.8806226659597929 35.7105629544333851 24.1793920666560993
 -16.8834180989520846 43.0634981590752943 24.1793920666560993
 47.1921601129273753 19.9542732302007124 24.1793920666560993
  3.9443285975946978  7.6978296253263636 23.0721968544827192
 11.2972638022366016 14.7006250583186571 23.0721968544827192
  4.2944683692443038 22.0535602629605592 23.0721968544827192
 -2.7083270637479853 29.4064954676024684 23.0721968544827192
 18.6501990068785055 21.7034204913109505 23.0721968544827192
 11.6474035738862067 29.0563556959528597 23.0721968544827192
  4.6446081408939186 36.4092909005947689 23.0721968544827192
 -2.3581872920983749 43.7622261052366710 23.0721968544827192
 -9.3609827250906701 51.1151613098785802 23.0721968544827192
 33.0059296445127046 21.3532807196613277 23.0721968544827192
 26.0031342115204147 28.7062159243032440 23.0721968544827192
 19.0003387785281248 36.0591511289451603 23.0721968544827192
 11.9975433455358296 43.4120863335870482 23.0721968544827192
  4.9947479125435379 50.7650215382289645 23.0721968544827192
 18.3000592352288898  7.3476898536767479 23.0721968544827192
 40.3588648491546067 28.3560761526536211 23.0721968544827192
 33.3560694161623204 35.7090113572955374 23.0721968544827192
 26.3532739831700269 43.0619465619374324 23.0721968544827192
 19.3504785501777263 50.4148817665793558 23.0721968544827192
 12.3476831171854435 57.7678169712212508 23.0721968544827192
 25.6529944398707848 14.3504852866690467 23.0721968544827192
 -3.0584668353975970 15.0507648299682710 23.0721968544827192
 40.7090046208042224 42.7118067902878238 23.0721968544827192
 33.7062091878119148 50.0647419949297330 23.0721968544827192
 26.7034137548196355 57.4176771995716351 23.0721968544827192
 19.7006183218273421 64.7706124042135514 23.0721968544827192
 -9.7111224967402698 36.7594306722443775 23.0721968544827192
 -16.7139179297325597 44.1123658768863010 23.0721968544827192
 47.3616602821468859 21.0031409480117226 23.0721968544827192
  3.7580092769299682  7.0984603019560168 21.7511985067007316
 11.1109444815718739 14.1012557349483139 21.7511985067007316
  4.1081490485795769 21.4541909395902195 21.7511985067007316
 -2.8946463844127122 28.8071261442321216 21.7511985067007316
 18.4638796862137795 21.1040511679406038 21.7511985067007316
 11.4610842532214807 28.4569863725825130 21.7511985067007316
  4.4582888202291908 35.8099215772244150 21.7511985067007316
 -2.5445066127631097 43.1628567818663385 21.7511985067007316
 -9.5473020457553996 50.5157919865082476 21.7511985067007316
 32.8196103238479679 20.7539113962909738 21.7511985067007316
 25.8168148908556745 28.1068466009328901 21.7511985067007316
 18.8140194578633810 35.4597818055747922 21.7511985067007316
 11.8112240248710929 42.8127170102167014 21.7511985067007316
  4.8084285918788012 50.1656522148586248 21.7511985067007316
 -2.1943668411134993 57.5185874195005198 21.7511985067007316
 40.1725455284898771 27.7567068292832744 21.7511985067007316
 33.1697500954975766 35.1096420339251836 21.7511985067007316
 26.1669546625052938 42.4625772385670857 21.7511985067007316
 19.1641592295129968 49.8155124432089949 21.7511985067007316
 12.1613637965207069 57.1684476478509040 21.7511985067007316
 25.4666751192060516 13.7511159632987017 21.7511985067007316
 -3.2447861560623217 14.4513955065979278 21.7511985067007316
 40.5226853001394929 42.1124374669174841 21.7511985067007316
 33.5198898671471852 49.4653726715593933 21.7511985067007316
 26.5170944341549060 56.8183078762013025 21.7511985067007316
 19.5142990011626090 64.1712430808432259 21.7511985067007316
 -9.8974418174050065 36.1600613488740379 21.7511985067007316
 -16.9002372503972964 43.5129965535159471 21.7511985067007316
 47.1753409614821635 20.4037716246413758 21.7511985067007316
  3.3079875454639658  8.0015421563317854 29.5151803301504927
 10.6609227501058719 15.0043375893240807 29.5151803301504927
  3.6581273171135749 22.3572727939659899 29.5151803301504927
 -3.3446681158787213 29.7102079986078955 29.5151803301504927
 18.0138579547477775 22.0071330223163741 29.5151803301504927
 11.0110625217554841 29.3600682269582833 29.5151803301504927
  4.0082670887631870 36.7130034316001854 29.5151803301504927
 -2.9945283442290975 44.0659386362420804 29.5151803301504927
 -9.9973237772213928 51.4188738408840038 29.5151803301504927
 32.3695885923819731 21.6569932506667584 29.5151803301504927
 25.3667931593896760 29.0099284553086640 29.5151803301504927
 18.3639977263973933 36.3628636599505768 29.5151803301504927
 11.3612022934050998 43.7157988645924718 29.5151803301504927
  4.3584068604127992 51.0687340692343952 29.5151803301504927
 17.6637181830981582  7.6514023846821715 29.5151803301504927
 39.7225237970238751 28.6597886836590448 29.5151803301504927
 32.7197283640315959 36.0127238883009611 29.5151803301504927
 25.7169329310392918 43.3656590929428702 29.5151803301504927
 18.7141374980469877 50.7185942975847652 29.5151803301504927
 11.7113420650547049 58.0715295022266744 29.5151803301504927
 25.0166533877400568 14.6541978176744685 29.5151803301504927
 -3.6948078875283228 15.3544773609737000 29.5151803301504927
 40.0726635686734909 43.0155193212932474 29.5151803301504927
 33.0698681356811974 50.3684545259351708 29.5151803301504927
 26.0670727026889075 57.7213897305770587 29.5151803301504927
 19.0642772696966070 65.0743249352189679 29.5151803301504927
 -10.3474635488709996 37.0631432032498154 29.5151803301504927
 -17.3502589818632984 44.4160784078917175 29.5151803301504927
 46.7253192300161615 21.3068534790171427 29.5151803301504927
  3.2186271207440398  8.6464600989074825 27.9507273586487344
 10.5715623253859476 15.6492555318997759 27.9507273586487344
  3.5687668923936506 23.0021907365416851 27.9507273586487344
 -3.4340285405986464 30.3551259411835943 27.9507273586487344
 17.9244975300278497 22.6520509648920694 27.9507273586487344
 10.9217020970355563 30.0049861695339821 27.9507273586487344
  3.9189066640432682 37.3579213741758878 27.9507273586487344
 -3.0838887689490271 44.7108565788177970 27.9507273586487344
 -10.0866842019413241 52.0637917834597133 27.9507273586487344
 32.2802281676620524 22.3019111932424536 27.9507273586487344
 25.2774327346697483 29.6548463978843628 27.9507273586487344
 18.2746373016774584 37.0077816025262649 27.9507273586487344
 11.2718418686851738 44.3607168071681741 27.9507273586487344
  4.2690464356928715 51.7136520118100762 27.9507273586487344
 17.5743577583782269  8.2963203272578685 27.9507273586487344
 39.6331633723039545 29.3047066262347400 27.9507273586487344
 32.6303679393116539 36.6576418308766563 27.9507273586487344
 25.6275725063193640 44.0105770355185655 27.9507273586487344
 18.6247770733270670 51.3635122401604747 27.9507273586487344
 11.6219816403347878 58.7164474448023697 27.9507273586487344
 24.9272929630201290 15.2991157602501691 27.9507273586487344
 -3.7841683122482555 15.9993953035493934 27.9507273586487344
 39.9833031439535489 43.6604372638689497 27.9507273586487344
 32.9805077109612697 51.0133724685108518 27.9507273586487344
 25.9777122779689797 58.3663076731527610 27.9507273586487344
 18.9749168449766827 65.7192428777946844 27.9507273586487344
 -10.4368239735909256 37.7080611458254964 27.9507273586487344
 -17.4396194065832297 45.0609963504674198 27.9507273586487344
 46.6359588052962337 21.9517714215928379 27.9507273586487344
  2.1589928567596886  7.3866096776357919 28.4244150731737761
  9.5119280614015924 14.3894051106280845 28.4244150731737761
  2.5091326284093025 21.7423403152699954 28.4244150731737761
 -4.4936628045829918 29.0952755199119011 28.4244150731737761
 16.8648632660434998 21.3922005436203762 28.4244150731737761
  9.8620678330512028 28.7451357482622853 28.4244150731737761
  2.8592724000589129 36.0980709529041945 28.4244150731737761
 -4.1435230329333841 43.4510061575461037 28.4244150731737761
 -11.1463184659256758 50.8039413621880129 28.4244150731737761
 31.2205939036776954 21.0420607719707640 28.4244150731737761
 24.2177984706854055 28.3949959766126696 28.4244150731737761
 17.2150030376931085 35.7479311812545788 28.4244150731737761
 10.2122076047008257 43.1008663858964809 28.4244150731737761
  3.2094121717085251 50.4538015905384043 28.4244150731737761
 16.5147234943938876  7.0364699059861788 28.4244150731737761
 38.5735291083196046 28.0448562049630539 28.4244150731737761
 31.5707336753273111 35.3977914096049773 28.4244150731737761
 24.5679382423350106 42.7507266142468723 28.4244150731737761
 17.5651428093427171 50.1036618188887815 28.4244150731737761
 10.5623473763504307 57.4565970235306906 28.4244150731737761
 23.8676586990357720 14.0392653389784705 28.4244150731737761
 -4.8438025762325942 14.7395448822777073 28.4244150731737761
 38.9236688799692203 42.4005868425972636 28.4244150731737761
 31.9208734469769269 49.7535220472391799 28.4244150731737761
 24.9180780139846263 57.1064572518810678 28.4244150731737761
 17.9152825809923328 64.4593924565229628 28.4244150731737761
 -11.4964582375752844 36.4482107245538174 28.4244150731737761
 32.2710132186265355 64.1092526848733542 28.4244150731737761
 45.5763245413118696 20.6919210003211482 28.4244150731737761
  5.1291646417676766  7.2276103618590586 28.0763597828123466
 12.4820998464095823 14.2304057948513538 28.0763597828123466
  5.4793044134172879 21.5833409994932595 28.0763597828123466
 -1.5234910195750011 28.9362762041351687 28.0763597828123466
 19.8350350510514915 21.2332012278436508 28.0763597828123466
 12.8322396180591944 28.5861364324855600 28.0763597828123466
  5.8294441850668939 35.9390716371274550 28.0763597828123466
 -1.1733512479253925 43.2920068417693713 28.0763597828123466
 -8.1761466809176877 50.6449420464112876 28.0763597828123466
 34.1907656886856941 20.8830614561940315 28.0763597828123466
 27.1879702556933935 28.2359966608359372 28.0763597828123466
 20.1851748227011072 35.5889318654778464 28.0763597828123466
 13.1823793897087995 42.9418670701197414 28.0763597828123466
  6.1795839567165167 50.2948022747616648 28.0763597828123466
 -0.8232114762757803 57.6477374794035740 28.0763597828123466
 41.5437008933275962 27.8858568891863285 28.0763597828123466
 34.5409054603352956 35.2387920938282377 28.0763597828123466
 27.5381100273430093 42.5917272984701327 28.0763597828123466
 20.5353145943507087 49.9446625031120561 28.0763597828123466
 13.5325191613584188 57.2975977077539653 28.0763597828123466
 26.8378304840437742 13.8802660232017558 28.0763597828123466
 -1.8736307912246177 14.5805455665009696 28.0763597828123466
 41.8938406649772048 42.2415875268205241 28.0763597828123466
 34.8910452319849043 49.5945227314624333 28.0763597828123466
 27.8882497989926179 56.9474579361043425 28.0763597828123466
 20.8854543660003316 64.3003931407462517 28.0763597828123466
 -8.5262864525672910 36.2892114087770778 28.0763597828123466
 -15.5290818855595898 43.6421466134189799 28.0763597828123466
 48.5464963263198825 20.5329216845444193 28.0763597828123466
  4.1169811718382476  5.9293129903480111 28.7896123198932088
 11.4699163764801551 12.9321084233403063 28.7896123198932088
  4.4671209434878598 20.2850436279822155 28.7896123198932088
 -2.5356744895044363 27.6379788326241211 28.7896123198932088
 18.8228515811220625 19.9349038563326033 28.7896123198932088
 11.8200561481297619 27.2878390609745090 28.7896123198932088
  4.8172607151374702 34.6407742656164146 28.7896123198932088
 -2.1855347178548232 41.9937094702583238 28.7896123198932088
 -9.1883301508471202 49.3466446749002401 28.7896123198932088
 33.1785822187562545 19.5847640846829805 28.7896123198932088
 26.1757867857639610 26.9376992893248897 28.7896123198932088
 19.1729913527716676 34.2906344939667989 28.7896123198932088
 12.1701959197793848 41.6435696986087009 28.7896123198932088
  5.1674004867870806 48.9965049032506244 28.7896123198932088
 -1.8353949462052093 56.3494401078925335 28.7896123198932088
 40.5315174233981566 26.5875595176752810 28.7896123198932088
 33.5287219904058631 33.9404947223171902 28.7896123198932088
 26.5259265574135696 41.2934299269590923 28.7896123198932088
 19.5231311244212833 48.6463651316009944 28.7896123198932088
 12.5203356914289969 55.9993003362429036 28.7896123198932088
 25.8256470141143382 12.5819686516907048 28.7896123198932088
 -2.8858142611540423 13.2822481949899220 28.7896123198932088
 40.8816571950477794 40.9432901553094766 28.7896123198932088
 33.8788617620554788 48.2962253599513929 28.7896123198932088
 26.8760663290631960 55.6491605645932950 28.7896123198932088
 19.8732708960708848 63.0020957692352113 28.7896123198932088
 -9.5384699224967164 34.9909140372660303 28.7896123198932088
 -16.5412653554890063 42.3438492419079395 28.7896123198932088
 47.5343128563904429 19.2346243130333754 28.7896123198932088
  4.4743158961802383  5.3703511869227043 26.4760076673599869
 11.8272511008221439 12.3731466199150013 26.4760076673599869
  4.8244556678298505 19.7260818245569070 26.4760076673599869
 -2.1783397651624430 27.0790170291988161 26.4760076673599869
 19.1801863054640478 19.3759420529072841 26.4760076673599869
 12.1773908724717508 26.7288772575492004 26.4760076673599869
  5.1745954394794609 34.0818124621910954 26.4760076673599869
 -1.8281999935128308 41.4347476668330188 26.4760076673599869
 -8.8309954265051296 48.7876828714749209 26.4760076673599869
 33.5359169430982433 19.0258022812576790 26.4760076673599869
 26.5331215101059605 26.3787374858995847 26.4760076673599869
 19.5303260771136635 33.7316726905415010 26.4760076673599869
 12.5275306441213612 41.0846078951833960 26.4760076673599869
  5.5247352111290784 48.4375430998253194 26.4760076673599869
 -1.4780602218632204 55.7904783044672072 26.4760076673599869
 40.8888521477401454 26.0285977142499618 26.4760076673599869
 33.8860567147478591 33.3815329188918710 26.4760076673599869
 26.8832612817555585 40.7344681235337802 26.4760076673599869
 19.8804658487632651 48.0874033281757036 26.4760076673599869
 12.8776704157709858 55.4403385328175986 26.4760076673599869
 26.1829817384563306 12.0230068482653980 26.4760076673599869
 -2.5284795368120512 12.7232863915646153 26.4760076673599869
 41.2389919193897612 40.3843283518841645 26.4760076673599869
 34.2361964863974606 47.7372635565260808 26.4760076673599869
 27.2334010534051743 55.0901987611679829 26.4760076673599869
 20.2306056204128843 62.4431339658098921 26.4760076673599869
 -9.1811351981547347 34.4319522338407182 26.4760076673599869
 -16.1839306311470317 41.7848874384826274 26.4760076673599869
 27.5835408250547829 69.4459293988022068 26.4760076673599869
  2.7484818122412022  5.8328756220560276 26.6546002713123471
 10.1014170168831097 12.8356710550483264 26.6546002713123471
  3.0986215838908118 20.1886062596902285 26.6546002713123471
 -3.9041738491014808 27.5415414643321412 26.6546002713123471
 17.4543522215250171 19.8384664880406234 26.6546002713123471
 10.4515567885327130 27.1914016926825219 26.6546002713123471
  3.4487613555404231 34.5443368973244276 26.6546002713123471
 -3.5540340774518722 41.8972721019663439 26.6546002713123471
 -10.5568295104441638 49.2502073066082531 26.6546002713123471
 31.8100828591592162 19.4883267163910041 26.6546002713123471
 24.8072874261669227 26.8412619210329098 26.6546002713123471
 17.8044919931746257 34.1941971256748189 26.6546002713123471
 10.8016965601823269 41.5471323303167139 26.6546002713123471
  3.7989011271900388 48.9000675349586373 26.6546002713123471
 -3.2038943058022618 56.2530027396005394 26.6546002713123471
 39.1630180638011112 26.4911221493832905 26.6546002713123471
 32.1602226308088177 33.8440573540252103 26.6546002713123471
 25.1574271978165243 41.1969925586671195 26.6546002713123471
 18.1546317648242379 48.5499277633090287 26.6546002713123471
 11.1518363318319551 55.9028629679509237 26.6546002713123471
 24.4571476545172892 12.4855312833987160 26.6546002713123471
 -4.2543136207510832 13.1858108266979439 26.6546002713123471
 39.5131578354507269 40.8468527870174967 26.6546002713123471
 32.5103624024584263 48.1997879916594201 26.6546002713123471
 25.5075669694661542 55.5527231963013151 26.6546002713123471
 18.5047715364738394 62.9056584009432243 26.6546002713123471
 -10.9069692820937707 34.8944766689740504 26.6546002713123471
 32.8605021741080492 62.5555186292936014 26.6546002713123471
 46.1658134967934046 19.1381869447413955 26.6546002713123471
  3.2284705599625751  8.0892443829458216 25.7002128558833576
 10.5814057646044795 15.0920398159381115 25.7002128558833576
  3.5786103316121869 22.4449750205800207 25.7002128558833576
 -3.4241851013801083 29.7979102252219334 25.7002128558833576
 17.9343409692463851 22.0948352489304014 25.7002128558833576
 10.9315455362540881 29.4477704535723106 25.7002128558833576
  3.9287501032617964 36.8007056582142269 25.7002128558833576
 -3.0740453297304988 44.1536408628561361 25.7002128558833576
 -10.0768407627227923 51.5065760674980453 25.7002128558833576
 32.2900716068805806 21.7446954772807963 25.7002128558833576
 25.2872761738882872 29.0976306819226949 25.7002128558833576
 18.2844807408959973 36.4505658865646041 25.7002128558833576
 11.2816853079036949 43.8035010912065133 25.7002128558833576
  4.2788898749114104 51.1564362958484367 25.7002128558833576
 17.5842011975967587  7.7391046112962112 25.7002128558833576
 39.6430068115224827 28.7474909102730791 25.7002128558833576
 32.6402113785301964 36.1004261149149954 25.7002128558833576
 25.6374159455379029 43.4533613195568975 25.7002128558833576
 18.6346205125456024 50.8062965241988138 25.7002128558833576
 11.6318250795533231 58.1592317288407088 25.7002128558833576
 24.9371364022386679 14.7419000442885135 25.7002128558833576
 -3.7743248730297143 15.4421795875877326 25.7002128558833576
 39.9931465831720985 43.1032215479072818 25.7002128558833576
 32.9903511501798050 50.4561567525492052 25.7002128558833576
 25.9875557171875116 57.8090919571911002 25.7002128558833576
 18.9847602841952110 65.1620271618330236 25.7002128558833576
 -10.4269805343723991 37.1508454298638284 25.7002128558833576
 -17.4297759673646873 44.5037806345057518 25.7002128558833576
 46.6458022445147478 21.3945557056311664 25.7002128558833576
  4.9930210540383291  7.7075071424717292 25.6314789156789615
 12.3459562586802356 14.7103025754640235 25.6314789156789615
  5.3431608256879368 22.0632377801059292 25.6314789156789615
 -1.6596346073043549 29.4161729847478419 25.6314789156789615
 19.6988914633221341 21.7130980084563170 25.6314789156789615
 12.6960960303298407 29.0660332130982226 25.6314789156789615
  5.6933005973375490 36.4189684177401318 25.6314789156789615
 -1.3094948356547444 43.7719036223820410 25.6314789156789615
 -8.3122902686470415 51.1248388270239502 25.6314789156789615
 34.0546221009563368 21.3629582368066977 25.6314789156789615
 27.0518266679640504 28.7158934414486069 25.6314789156789615
 20.0490312349717534 36.0688286460905232 25.6314789156789615
 13.0462358019794600 43.4217638507324182 25.6314789156789615
  6.0434403689871630 50.7746990553743345 25.6314789156789615
 -0.9593550640051269 58.1276342600162437 25.6314789156789615
 41.4075573055982460 28.3657536697989876 25.6314789156789615
 34.4047618726059596 35.7186888744409075 25.6314789156789615
 27.4019664396136484 43.0716240790828095 25.6314789156789615
 20.3991710066213585 50.4245592837247187 25.6314789156789615
 13.3963755736290757 57.7774944883666137 25.6314789156789615
 26.7016868963144169 14.3601628038144185 25.6314789156789615
 -2.0097743789539639 15.0604423471136393 25.6314789156789615
 41.7576970772478546 42.7214843074332009 25.6314789156789615
 34.7549016442555541 50.0744195120751030 25.6314789156789615
 27.7521062112632606 57.4273547167170051 25.6314789156789615
 20.7493107782709671 64.7802899213589285 25.6314789156789615
 -8.6624300402966465 36.7691081893897334 25.6314789156789615
 -15.6652254732889524 44.1220433940316568 25.6314789156789615
 48.4103527385905181 21.0128184651570820 25.6314789156789615
  4.5203731524426454  5.8371035978102679 24.0308677901059085
 11.8733083570845537 12.8398990308025613 24.0308677901059085
  4.8705129240922567 20.1928342354444759 24.0308677901059085
 -2.1322825089000332 27.5457694400863780 24.0308677901059085
 19.2262435617264558 19.8426944637948566 24.0308677901059085
 12.2234481287341588 27.1956296684367658 24.0308677901059085
  5.2206526957418689 34.5485648730786679 24.0308677901059085
 -1.7821427372504264 41.9015000777205842 24.0308677901059085
 -8.7849381702427198 49.2544352823624934 24.0308677901059085
 33.5819741993606584 19.4925546921452444 24.0308677901059085
 26.5791787663683614 26.8454898967871500 24.0308677901059085
 19.5763833333760715 34.1984251014290592 24.0308677901059085
 12.5735879003837780 41.5513603060709542 24.0308677901059085
  5.5707924673914881 48.9042955107128776 24.0308677901059085
 -1.4320029656008160 56.2572307153547868 24.0308677901059085
 40.9349094040025605 26.4953501251375272 24.0308677901059085
 33.9321139710102742 33.8482853297794435 24.0308677901059085
 26.9293185380179736 41.2012205344213385 24.0308677901059085
 19.9265231050256872 48.5541557390632619 24.0308677901059085
 12.9237276720334009 55.9070909437051569 24.0308677901059085
 26.2290389947187350 12.4897592591529580 24.0308677901059085
 -2.4824222805496454 13.1900388024521824 24.0308677901059085
 41.2850491756521834 40.8510807627717298 24.0308677901059085
 34.2822537426598686 48.2040159674136532 24.0308677901059085
 27.2794583096675964 55.5569511720555482 24.0308677901059085
 20.2766628766752817 62.9098863766974716 24.0308677901059085
 -9.1350779418923285 34.8987046447282836 24.0308677901059085
 -16.1378733748846166 42.2516398493701928 24.0308677901059085
 27.6295980813171980 69.9126818096897438 24.0308677901059085
  2.7555330225518926  6.2086492108811875 24.1140873260427995
 10.1084682271937982 13.2114446438734809 24.1140873260427995
  3.1056727942015039 20.5643798485153901 24.1140873260427995
 -3.8971226387907905 27.9173150531572993 24.1140873260427995
 17.4614034318356985 20.2142400768657744 24.1140873260427995
 10.4586079988434051 27.5671752815076871 24.1140873260427995
  3.4558125658511170 34.9201104861495892 24.1140873260427995
 -3.5469828671411712 42.2730456907914913 24.1140873260427995
 -10.5497783001334646 49.6259808954334076 24.1140873260427995
 31.8171340694699012 19.8641003052161516 24.1140873260427995
 24.8143386364775971 27.2170355098580607 24.1140873260427995
 17.8115432034853107 34.5699707144999735 24.1140873260427995
 10.8087477704930226 41.9229059191418756 24.1140873260427995
  3.8059523375007238 49.2758411237837919 24.1140873260427995
 -3.1968430954915661 56.6287763284256940 24.1140873260427995
 39.1700692741118104 26.8668957382084486 24.1140873260427995
 32.1672738411195240 34.2198309428503649 24.1140873260427995
 25.1644784081272235 41.5727661474922741 24.1140873260427995
 18.1616829751349194 48.9257013521341690 24.1140873260427995
 11.1588875421426330 56.2786365567760782 24.1140873260427995
 24.4641988648279849 12.8613048722238723 24.1140873260427995
 -4.2472624104404018 13.5615844155230967 24.1140873260427995
 39.5202090457614119 41.2226263758426583 24.1140873260427995
 32.5174136127691185 48.5755615804845675 24.1140873260427995
 25.5146181797768321 55.9284967851264696 24.1140873260427995
 18.5118227467845315 63.2814319897683788 24.1140873260427995
 -10.8999180717830804 35.2702502577992121 24.1140873260427995
 32.8675533844187271 62.9312922181187702 24.1140873260427995
 46.1728647071040967 19.5139605335665465 24.1140873260427995
  4.9626639169284150  8.1425971212396444 23.1331969288767993
 12.3155991215703207 15.1453925542319414 23.1331969288767993
  5.3128036885780263 22.4983277588738488 23.1331969288767993
 -1.6899917444142663 29.8512629635157580 23.1331969288767993
 19.6685343262122316 22.1481879872242331 23.1331969288767993
 12.6657388932199364 29.5011231918661423 23.1331969288767993
  5.6629434602276376 36.8540583965080515 23.1331969288767993
 -1.3398519727646452 44.2069936011499607 23.1331969288767993
 -8.3426474057569564 51.5599288057918699 23.1331969288767993
 34.0242649638464201 21.7980482155746174 23.1331969288767993
 27.0214695308541302 29.1509834202165194 23.1331969288767993
 20.0186740978618367 36.5039186248584286 23.1331969288767993
 13.0158786648695433 43.8568538295003378 23.1331969288767993
  6.0130832318772534 51.2097890341422470 23.1331969288767993
 19.3183945545625981  7.7924573495900358 23.1331969288767993
 41.3772001684883222 28.8008436485669073 23.1331969288767993
 34.3744047354960429 36.1537788532088200 23.1331969288767993
 27.3716093025037388 43.5067140578507150 23.1331969288767993
 20.3688138695114525 50.8596492624926384 23.1331969288767993
 13.3660184365191519 58.2125844671345334 23.1331969288767993
 26.6713297592045002 14.7952527825823310 23.1331969288767993
 -2.0401315160638775 15.4955323258815589 23.1331969288767993
 -9.0429269490561683 22.8484675305234717 23.1331969288767993
 34.7245445071456373 50.5095094908430156 23.1331969288767993
 27.7217490741533545 57.8624446954849248 23.1331969288767993
 20.7189536411610540 65.2153799001268339 23.1331969288767993
 -8.6927871774065650 37.2041981681576743 23.1331969288767993
 -15.6955826103988532 44.5571333727995693 23.1331969288767993
 48.3799956014806085 21.4479084439250123 23.1331969288767993
  3.1997613494031847  8.5127720637742037 23.2137465740011208
 10.5526965540450917 15.5155674967664972 23.2137465740011208
  3.5499011210527947 22.8685027014084064 23.2137465740011208
 -3.4528943119394953 30.2214379060503120 23.2137465740011208
 17.9056317586870009 22.5183629297587942 23.2137465740011208
 10.9028363256947056 29.8712981344006927 23.2137465740011208
  3.9000408927024086 37.2242333390426126 23.2137465740011208
 -3.1027545402898848 44.5771685436845146 23.2137465740011208
 -10.1055499732821801 51.9301037483264309 23.2137465740011208
 32.2613623963211893 22.1682231581091713 23.2137465740011208
 25.2585669633288958 29.5211583627510805 23.2137465740011208
 18.2557715303366095 36.8740935673929897 23.2137465740011208
 11.2529760973443143 44.2270287720348989 23.2137465740011208
  4.2501806643520190 51.5799639766768081 23.2137465740011208
 17.5554919870373745  8.1626322921245933 23.2137465740011208
 39.6142976009630843 29.1710185911014648 23.2137465740011208
 32.6115021679708192 36.5239537957433882 23.2137465740011208
 25.6087067349785116 43.8768890003852761 23.2137465740011208
 18.6059113019862110 51.2298242050271924 23.2137465740011208
 11.6031158689939282 58.5827594096690945 23.2137465740011208
 24.9084271916792694 15.1654277251168850 23.2137465740011208
 -3.8030340835891017 15.8657072684161147 23.2137465740011208
 39.9644373726127213 43.5267492287356674 23.2137465740011208
 32.9616419396204208 50.8796844333775837 23.2137465740011208
 25.9588465066281344 58.2326196380194858 23.2137465740011208
 18.9560510736358054 65.5855548426613950 23.2137465740011208
 -10.4556897449317816 37.5743731106922283 23.2137465740011208
 -17.4584851779240822 44.9273083153341375 23.2137465740011208
 46.6170930339553777 21.8180833864595698 23.2137465740011208
  2.7951286021732598  6.6978405913409871 21.6709995206087314
 10.1480638068151627 13.7006360243332814 21.6709995206087314
  3.1452683738228711 21.0535712289751871 21.6709995206087314
 -3.8575270591694215 28.4065064336170963 21.6709995206087314
 17.5009990114570755 20.7034314573255784 21.6709995206087314
 10.4982035784647749 28.0563666619674841 21.6709995206087314
  3.4954081454724832 35.4093018666093897 21.6709995206087314
 -3.5073872875198102 42.7622370712512989 21.6709995206087314
 -10.5101827205121072 50.1151722758932152 21.6709995206087314
 31.8567296490912604 20.3532916856759627 21.6709995206087314
 24.8539342160989740 27.7062268903178719 21.6709995206087314
 17.8511387831066770 35.0591620949597740 21.6709995206087314
 10.8483433501143800 42.4120972996016832 21.6709995206087314
  3.8455479171220972 49.7650325042436066 21.6709995206087314
 -3.1572475158702034 57.1179677088855016 21.6709995206087314
 39.2096648537331802 27.3560871186682562 21.6709995206087314
 32.2068694207408868 34.7090223233101653 21.6709995206087314
 25.2040739877485862 42.0619575279520745 21.6709995206087314
 18.2012785547562927 49.4148927325939766 21.6709995206087314
 11.1984831217640100 56.7678279372358787 21.6709995206087314
 24.5037944444493512 13.3504962526836763 21.6709995206087314
 -4.2076668308190222 14.0507757959829043 21.6709995206087314
 39.5598046253827818 41.7118177563024517 21.6709995206087314
 32.5570091923904883 49.0647529609443751 21.6709995206087314
 25.5542137593982090 56.4176881655862772 21.6709995206087314
 18.5514183264059014 63.7706233702281793 21.6709995206087314
 -10.8603224921617194 35.7594416382590055 21.6709995206087314
 32.9071489640400898 63.4204835985785564 21.6709995206087314
 46.2124602867254595 20.0031519140263470 21.6709995206087314
  3.8791872888667003  7.8365536414516477 21.0205901650752409
 11.2321224935086086 14.8393490744439411 21.0205901650752409
  4.2293270605163125 22.1922842790858503 21.0205901650752409
 -2.7734683724759828 29.5452194837277595 21.0205901650752409
 18.5850576981505071 21.8421445074362310 21.0205901650752409
 11.5822622651582190 29.1950797120781402 21.0205901650752409
  4.5794668321659220 36.5480149167200494 21.0205901650752409
 -2.4233286008263750 43.9009501213619586 21.0205901650752409
 -9.4261240338186614 51.2538853260038678 21.0205901650752409
 32.9407883357847169 21.4920047357866224 21.0205901650752409
 25.9379929027924199 28.8449399404285245 21.0205901650752409
 18.9351974698001335 36.1978751450704337 21.0205901650752409
 11.9324020368078347 43.5508103497123358 21.0205901650752409
  4.9296066038155466 50.9037455543542521 21.0205901650752409
 18.2349179265008949  7.4864138698020328 21.0205901650752409
 40.2937235404266119 28.4948001687789159 21.0205901650752409
 33.2909281074343113 35.8477353734208180 21.0205901650752409
 26.2881326744420249 43.2006705780627271 21.0205901650752409
 19.2853372414497208 50.5536057827046363 21.0205901650752409
 12.2825418084574487 57.9065409873465384 21.0205901650752409
 25.5878531311428006 14.4892093027943325 21.0205901650752409
 -3.1236081441255967 15.1894888460935533 21.0205901650752409
 40.6438633120762205 42.8505308064131043 21.0205901650752409
 33.6410678790839270 50.2034660110550135 21.0205901650752409
 26.6382724460916478 57.5564012156969227 21.0205901650752409
 19.6354770130993401 64.9093364203388319 21.0205901650752409
 -9.7762638054682736 36.8981546883696652 21.0205901650752409
 -16.7790592384605581 44.2510898930115815 21.0205901650752409
 47.2965189734188982 21.1418649641369996 21.0205901650752409
  4.4684771075999015  6.3470437962291708 21.5941193415438732
 11.8214123122418080 13.3498392292214643 21.5941193415438732
  4.8186168792495128 20.7027744338633752 21.5941193415438732
 -2.1841785537427825 28.0557096385052844 21.5941193415438732
 19.1743475168837136 20.3526346622137595 21.5941193415438732
 12.1715520838914166 27.7055698668556687 21.5941193415438732
  5.1687566508991232 35.0585050714975637 21.5941193415438732
 -1.8340387820931667 42.4114402761394871 21.5941193415438732
 -8.8368342150854673 49.7643754807814034 21.5941193415438732
 33.5300781545179092 20.0024948905641402 21.5941193415438732
 26.5272827215256086 27.3554300952060458 21.5941193415438732
 19.5244872885333294 34.7083652998479621 21.5941193415438732
 12.5216918555410235 42.0613005044898642 21.5941193415438732
  5.5188964225487425 49.4142357091317734 21.5941193415438732
 -1.4838990104435617 56.7671709137736755 21.5941193415438732
 40.8830133591598113 27.0052903235564372 21.5941193415438732
 33.8802179261675249 34.3582255281983535 21.5941193415438732
 26.8774224931752315 41.7111607328402556 21.5941193415438732
 19.8746270601829238 49.0640959374821577 21.5941193415438732
 12.8718316271906410 56.4170311421240598 21.5941193415438732
 26.1771429498759858 12.9996994575718645 21.5941193415438732
 -2.5343183253923853 13.6999790008710853 21.5941193415438732
 41.2331531308094270 41.3610209611906328 21.5941193415438732
 34.2303576978171336 48.7139561658325562 21.5941193415438732
 27.2275622648248543 56.0668913704744512 21.5941193415438732
 20.2247668318325466 63.4198265751163603 21.5941193415438732
 -9.1869739867350795 35.4086448431471865 21.5941193415438732
 -16.1897694197273765 42.7615800477890957 21.5941193415438732
 47.8858087921520905 19.6523551189145422 21.5941193415438732
