Pb  I Cs Pb  I Cs 
 1.0000000000000000
    30.4621601335164698   10.1540533778388227    0.0000000000000000
   -10.1540533778388227   30.4621601335164698    0.0000000000000000
     0.0000000000000000    0.0000000000000000   30.1800000000000033
 Pb  I   Cs  Pb  I   Cs 
  20  80  40  20  80  40
Cartesian
  2.5385133444597061  2.5385133444597061 20.5899999999999999
  2.5385133444597066 12.6925667222985279 20.5899999999999999
  2.5385133444597052 22.8466201001373506 20.5899999999999999
  2.5385133444597088 33.0006734779761786 20.5899999999999999
 12.6925667222985332 12.6925667222985314 20.5899999999999999
 12.6925667222985314 22.8466201001373506 20.5899999999999999
 12.6925667222985332 33.0006734779761786 20.5899999999999999
 22.8466201001373577 12.6925667222985332 20.5899999999999999
 22.8466201001373541 22.8466201001373577 20.5899999999999999
 -7.6155400333791183 22.8466201001373506 20.5899999999999999
  7.6155400333791183  7.6155400333791192 20.5899999999999999
  7.6155400333791201 17.7695934112179401 20.5899999999999999
  7.6155400333791174 27.9236467890567610 20.5899999999999999
 17.7695934112179472  7.6155400333791201 20.5899999999999999
 17.7695934112179472 17.7695934112179401 20.5899999999999999
 17.7695934112179472 27.9236467890567646 20.5899999999999999
 17.7695934112179437 38.0777001668955961 20.5899999999999999
 -2.5385133444597057  7.6155400333791192 20.5899999999999999
 -2.5385133444597039 17.7695934112179401 20.5899999999999999
 -2.5385133444597061 27.9236467890567646 20.5899999999999999
  2.5385133444597061  2.5385133444597061 17.0000000000000000
  2.5385133444597066 12.6925667222985279 17.0000000000000000
  2.5385133444597052 22.8466201001373506 17.0000000000000000
  2.5385133444597088 33.0006734779761786 17.0000000000000000
 12.6925667222985332 12.6925667222985314 17.0000000000000000
 12.6925667222985314 22.8466201001373506 17.0000000000000000
 12.6925667222985332 33.0006734779761786 17.0000000000000000
 22.8466201001373577 12.6925667222985332 17.0000000000000000
 22.8466201001373541 22.8466201001373577 17.0000000000000000
 -7.6155400333791183 22.8466201001373506 17.0000000000000000
  7.6155400333791183  7.6155400333791192 17.0000000000000000
  7.6155400333791201 17.7695934112179401 17.0000000000000000
  7.6155400333791174 27.9236467890567610 17.0000000000000000
 17.7695934112179472  7.6155400333791201 17.0000000000000000
 17.7695934112179472 17.7695934112179401 17.0000000000000000
 17.7695934112179472 27.9236467890567646 17.0000000000000000
 17.7695934112179437 38.0777001668955961 17.0000000000000000
 -2.5385133444597057  7.6155400333791192 17.0000000000000000
 -2.5385133444597039 17.7695934112179401 17.0000000000000000
 -2.5385133444597061 27.9236467890567646 17.0000000000000000
  0.0000000000000000  0.0000000000000000 20.5899999999999999
  0.0000000000000009 10.1540533778388227 20.5899999999999999
  0.0000000000000018 20.3081067556776453 20.5899999999999999
  0.0000000000000018 30.4621601335164733 20.5899999999999999
 10.1540533778388244 10.1540533778388244 20.5899999999999999
 10.1540533778388244 20.3081067556776453 20.5899999999999999
 10.1540533778388244 30.4621601335164769 20.5899999999999999
 20.3081067556776453 10.1540533778388227 20.5899999999999999
 20.3081067556776489 20.3081067556776489 20.5899999999999999
 20.3081067556776418 30.4621601335164733 20.5899999999999999
 -5.0770266889194113 30.4621601335164733 20.5899999999999999
  5.0770266889194122 10.1540533778388227 20.5899999999999999
  5.0770266889194140 20.3081067556776453 20.5899999999999999
  5.0770266889194140 30.4621601335164698 20.5899999999999999
 15.2310800667582349 10.1540533778388244 20.5899999999999999
 15.2310800667582384 20.3081067556776453 20.5899999999999999
 15.2310800667582313 30.4621601335164769 20.5899999999999999
 25.3851334445970593 10.1540533778388244 20.5899999999999999
 25.3851334445970629 20.3081067556776489 20.5899999999999999
 -5.0770266889194113 20.3081067556776489 20.5899999999999999
  0.0000000000000004  5.0770266889194113 20.5899999999999999
  0.0000000000000000 15.2310800667582384 20.5899999999999999
  0.0000000000000000 25.3851334445970558 20.5899999999999999
 10.1540533778388280  5.0770266889194149 20.5899999999999999
 10.1540533778388244 15.2310800667582402 20.5899999999999999
 10.1540533778388209 25.3851334445970593 20.5899999999999999
 10.1540533778388262 35.5391868224358802 20.5899999999999999
 20.3081067556776418 15.2310800667582402 20.5899999999999999
 20.3081067556776489 25.3851334445970593 20.5899999999999999
 20.3081067556776489 35.5391868224358802 20.5899999999999999
  5.0770266889194122  5.0770266889194122 20.5899999999999999
  5.0770266889194122 15.2310800667582384 20.5899999999999999
  5.0770266889194131 25.3851334445970558 20.5899999999999999
 15.2310800667582384  5.0770266889194122 20.5899999999999999
 15.2310800667582367 15.2310800667582384 20.5899999999999999
 15.2310800667582402 25.3851334445970629 20.5899999999999999
 15.2310800667582402 35.5391868224358802 20.5899999999999999
 25.3851334445970593 15.2310800667582402 20.5899999999999999
 -5.0770266889194113 15.2310800667582384 20.5899999999999999
 -5.0770266889194078 25.3851334445970593 20.5899999999999999
  2.5385133444597061  2.5385133444597061 24.1800000000000033
  2.5385133444597066 12.6925667222985279 24.1800000000000033
  2.5385133444597052 22.8466201001373506 24.1800000000000033
  2.5385133444597088 33.0006734779761786 24.1800000000000033
 12.6925667222985332 12.6925667222985314 24.1800000000000033
 12.6925667222985314 22.8466201001373506 24.1800000000000033
 12.6925667222985332 33.0006734779761786 24.1800000000000033
 22.8466201001373577 12.6925667222985332 24.1800000000000033
 22.8466201001373541 22.8466201001373577 24.1800000000000033
 -7.6155400333791183 22.8466201001373506 24.1800000000000033
  7.6155400333791183  7.6155400333791192 24.1800000000000033
  7.6155400333791201 17.7695934112179401 24.1800000000000033
  7.6155400333791174 27.9236467890567610 24.1800000000000033
 17.7695934112179472  7.6155400333791201 24.1800000000000033
 17.7695934112179472 17.7695934112179401 24.1800000000000033
 17.7695934112179472 27.9236467890567646 24.1800000000000033
 17.7695934112179437 38.0777001668955961 24.1800000000000033
 -2.5385133444597057  7.6155400333791192 24.1800000000000033
 -2.5385133444597039 17.7695934112179401 24.1800000000000033
 -2.5385133444597061 27.9236467890567646 24.1800000000000033
  2.5385133444597061  7.6155400333791192 17.9399999999999977
  2.5385133444597061 17.7695934112179401 17.9399999999999977
  2.5385133444597106 27.9236467890567610 17.9399999999999977
 12.6925667222985297  7.6155400333791219 17.9399999999999977
 12.6925667222985297 17.7695934112179401 17.9399999999999977
 12.6925667222985314 27.9236467890567681 17.9399999999999977
 22.8466201001373506  7.6155400333791192 17.9399999999999977
 22.8466201001373577 17.7695934112179437 17.9399999999999977
 22.8466201001373577 27.9236467890567646 17.9399999999999977
 -7.6155400333791157 27.9236467890567646 17.9399999999999977
  7.6155400333791192  2.5385133444597061 17.9399999999999977
  7.6155400333791201 12.6925667222985314 17.9399999999999977
  7.6155400333791183 22.8466201001373648 17.9399999999999977
  7.6155400333791157 33.0006734779761857 17.9399999999999977
 17.7695934112179401 12.6925667222985314 17.9399999999999977
 17.7695934112179401 22.8466201001373506 17.9399999999999977
 17.7695934112179401 33.0006734779761857 17.9399999999999977
 27.9236467890567646 12.6925667222985314 17.9399999999999977
 -2.5385133444597052 12.6925667222985314 17.9399999999999977
 -2.5385133444597079 22.8466201001373541 17.9399999999999977
  2.5385133444597061  7.6155400333791192 23.2400000000000020
  2.5385133444597061 17.7695934112179401 23.2400000000000020
  2.5385133444597106 27.9236467890567610 23.2400000000000020
 12.6925667222985297  7.6155400333791219 23.2400000000000020
 12.6925667222985297 17.7695934112179401 23.2400000000000020
 12.6925667222985314 27.9236467890567681 23.2400000000000020
 22.8466201001373506  7.6155400333791192 23.2400000000000020
 22.8466201001373577 17.7695934112179437 23.2400000000000020
 22.8466201001373577 27.9236467890567646 23.2400000000000020
 -7.6155400333791157 27.9236467890567646 23.2400000000000020
  7.6155400333791192  2.5385133444597061 23.2400000000000020
  7.6155400333791201 12.6925667222985314 23.2400000000000020
  7.6155400333791183 22.8466201001373648 23.2400000000000020
  7.6155400333791157 33.0006734779761857 23.2400000000000020
 17.7695934112179401 12.6925667222985314 23.2400000000000020
 17.7695934112179401 22.8466201001373506 23.2400000000000020
 17.7695934112179401 33.0006734779761857 23.2400000000000020
 27.9236467890567646 12.6925667222985314 23.2400000000000020
 -2.5385133444597052 12.6925667222985314 23.2400000000000020
 -2.5385133444597079 22.8466201001373541 23.2400000000000020
  0.5077026688919408  3.5539186822435882  9.5899999999999999
  8.6309453711629995  9.6463507089468816  9.5899999999999999
  2.5385133444597079 17.7695934112179401  9.5899999999999999
 -3.5539186822435873 25.8928361134890039  9.5899999999999999
 16.7541880734340580 15.7387827356501759  9.5899999999999999
 10.6617560467307637 23.8620254379212398  9.5899999999999999
  4.5693240200274765 31.9852681401922965  9.5899999999999999
 24.8774307757051218 21.8312147623534756  9.5899999999999999
 18.7849987490018293 29.9544574646245394  9.5899999999999999
 22.8466201001373506  7.6155400333791174  9.5899999999999999
  1.5231080066758245 10.6617560467307673  9.5899999999999999
  9.6463507089468834 16.7541880734340616  9.5899999999999999
  3.5539186822435909 24.8774307757051183  9.5899999999999999
  7.6155400333791192  2.5385133444597061  9.5899999999999999
 17.7695934112179401 22.8466201001373506  9.5899999999999999
 11.6771613845146458 30.9698628024084144  9.5899999999999999
 15.7387827356501759  8.6309453711629978  9.5899999999999999
 -4.5693240200274676 18.7849987490018258  9.5899999999999999
 19.8004040867857043 37.0622948291117069  9.5899999999999999
 23.8620254379212362 14.7233773978662938  9.5899999999999999
  0.5077026688919408  3.5539186822435882  6.0000000000000000
  8.6309453711629995  9.6463507089468816  6.0000000000000000
  2.5385133444597079 17.7695934112179401  6.0000000000000000
 -3.5539186822435873 25.8928361134890039  6.0000000000000000
 16.7541880734340580 15.7387827356501759  6.0000000000000000
 10.6617560467307637 23.8620254379212398  6.0000000000000000
  4.5693240200274765 31.9852681401922965  6.0000000000000000
 24.8774307757051218 21.8312147623534756  6.0000000000000000
 18.7849987490018293 29.9544574646245394  6.0000000000000000
 22.8466201001373506  7.6155400333791174  6.0000000000000000
  1.5231080066758245 10.6617560467307673  6.0000000000000000
  9.6463507089468834 16.7541880734340616  6.0000000000000000
  3.5539186822435909 24.8774307757051183  6.0000000000000000
  7.6155400333791192  2.5385133444597061  6.0000000000000000
 17.7695934112179401 22.8466201001373506  6.0000000000000000
 11.6771613845146458 30.9698628024084144  6.0000000000000000
 15.7387827356501759  8.6309453711629978  6.0000000000000000
 -4.5693240200274676 18.7849987490018258  6.0000000000000000
 19.8004040867857043 37.0622948291117069  6.0000000000000000
 23.8620254379212362 14.7233773978662938  6.0000000000000000
  0.0000000000000000  0.0000000000000000  9.5899999999999999
  8.1232427022710603  6.0924320267032943  9.5899999999999999
  2.0308106755677633 14.2156747289743528  9.5899999999999999
 -4.0616213511355301 22.3389174312454131  9.5899999999999999
 16.2464854045421205 12.1848640534065886  9.5899999999999999
 10.1540533778388244 20.3081067556776453  9.5899999999999999
  4.0616213511355266 28.4313494579487056  9.5899999999999999
 24.3697281068131808 18.2772960801098847  9.5899999999999999
 18.2772960801098847 26.4005387823809450  9.5899999999999999
 12.1848640534065868 34.5237814846519981  9.5899999999999999
  4.0616213511355301  3.0462160133516472  9.5899999999999999
 12.1848640534065904  9.1386480400549441  9.5899999999999999
  6.0924320267032996 17.2618907423259991  9.5899999999999999
  0.0000000000000044 25.3851334445970629  9.5899999999999999
 20.3081067556776453 15.2310800667582349  9.5899999999999999
 14.2156747289743528 23.3543227690292987  9.5899999999999999
  8.1232427022710603 31.4775654713003519  9.5899999999999999
 -2.0308106755677628 11.1694587156227101  9.5899999999999999
 22.3389174312454131 29.4467547957325912  9.5899999999999999
 16.2464854045421170 37.5699974980036515  9.5899999999999999
 27.4159441201648235 14.2156747289743528  9.5899999999999999
  5.0770266889194122 10.1540533778388227  9.5899999999999999
 -1.0154053377838821 18.2772960801098812  9.5899999999999999
 -7.1078373644871764 26.4005387823809414  9.5899999999999999
 13.2002693911904689 16.2464854045421205  9.5899999999999999
  7.1078373644871764 24.3697281068131737  9.5899999999999999
  1.0154053377838821 32.4929708090842340  9.5899999999999999
 21.3235120934615310 22.3389174312454131  9.5899999999999999
 15.2310800667582384 30.4621601335164733  9.5899999999999999
 19.2927014178937668  8.1232427022710549  9.5899999999999999
  1.0154053377838816  7.1078373644871764  9.5899999999999999
  9.1386480400549459 13.2002693911904725  9.5899999999999999
  3.0462160133516489 21.3235120934615345  9.5899999999999999
 -3.0462160133516436 29.4467547957325948  9.5899999999999999
 17.2618907423259991 19.2927014178937632  9.5899999999999999
 11.1694587156227101 27.4159441201648235  9.5899999999999999
 15.2310800667582384  5.0770266889194122  9.5899999999999999
 -5.0770266889194113 15.2310800667582384  9.5899999999999999
 19.2927014178937668 33.5083761468681232  9.5899999999999999
 23.3543227690293023 11.1694587156227101  9.5899999999999999
  0.5077026688919408  3.5539186822435882 13.1800000000000033
  8.6309453711629995  9.6463507089468816 13.1800000000000033
  2.5385133444597079 17.7695934112179401 13.1800000000000033
 -3.5539186822435873 25.8928361134890039 13.1800000000000033
 16.7541880734340580 15.7387827356501759 13.1800000000000033
 10.6617560467307637 23.8620254379212398 13.1800000000000033
  4.5693240200274765 31.9852681401922965 13.1800000000000033
 24.8774307757051218 21.8312147623534756 13.1800000000000033
 18.7849987490018293 29.9544574646245394 13.1800000000000033
 22.8466201001373506  7.6155400333791174 13.1800000000000033
  1.5231080066758245 10.6617560467307673 13.1800000000000033
  9.6463507089468834 16.7541880734340616 13.1800000000000033
  3.5539186822435909 24.8774307757051183 13.1800000000000033
  7.6155400333791192  2.5385133444597061 13.1800000000000033
 17.7695934112179401 22.8466201001373506 13.1800000000000033
 11.6771613845146458 30.9698628024084144 13.1800000000000033
 15.7387827356501759  8.6309453711629978 13.1800000000000033
 -4.5693240200274676 18.7849987490018258 13.1800000000000033
 19.8004040867857043 37.0622948291117069 13.1800000000000033
 23.8620254379212362 14.7233773978662938 13.1800000000000033
 -2.5385133444597057  7.6155400333791192  6.9399999999999995
  5.5847293578113550 13.7079720600824118  6.9399999999999995
 -0.5077026688919393 21.8312147623534720  6.9399999999999995
 -6.6001346955952362 29.9544574646245323  6.9399999999999995
 13.7079720600824135 19.8004040867857078  6.9399999999999995
  7.6155400333791166 27.9236467890567646  6.9399999999999995
 11.6771613845146494  5.5847293578113471  6.9399999999999995
 21.8312147623534685 25.8928361134889968  6.9399999999999995
 15.7387827356501706 34.0160788157600535  6.9399999999999995
 19.8004040867857078 11.6771613845146476  6.9399999999999995
  4.5693240200274730  6.6001346955952362  6.9399999999999995
 12.6925667222985297 12.6925667222985297  6.9399999999999995
  6.6001346955952354 20.8158094245695864  6.9399999999999995
  0.5077026688919428 28.9390521268406467  6.9399999999999995
 20.8158094245695864 18.7849987490018222  6.9399999999999995
 14.7233773978662903 26.9082414512728825  6.9399999999999995
  8.6309453711629960 35.0314841535439427  6.9399999999999995
 -1.5231080066758200 14.7233773978662974  6.9399999999999995
 -7.6155400333791166 22.8466201001373506  6.9399999999999995
 26.9082414512728860 10.6617560467307673  6.9399999999999995
 -2.5385133444597057  7.6155400333791192 12.2400000000000020
  5.5847293578113550 13.7079720600824118 12.2400000000000020
 -0.5077026688919393 21.8312147623534720 12.2400000000000020
 -6.6001346955952362 29.9544574646245323 12.2400000000000020
 13.7079720600824135 19.8004040867857078 12.2400000000000020
  7.6155400333791166 27.9236467890567646 12.2400000000000020
 11.6771613845146494  5.5847293578113471 12.2400000000000020
 21.8312147623534685 25.8928361134889968 12.2400000000000020
 15.7387827356501706 34.0160788157600535 12.2400000000000020
 19.8004040867857078 11.6771613845146476 12.2400000000000020
  4.5693240200274730  6.6001346955952362 12.2400000000000020
 12.6925667222985297 12.6925667222985297 12.2400000000000020
  6.6001346955952354 20.8158094245695864 12.2400000000000020
  0.5077026688919428 28.9390521268406467 12.2400000000000020
 20.8158094245695864 18.7849987490018222 12.2400000000000020
 14.7233773978662903 26.9082414512728825 12.2400000000000020
  8.6309453711629960 35.0314841535439427 12.2400000000000020
 -1.5231080066758200 14.7233773978662974 12.2400000000000020
 -7.6155400333791166 22.8466201001373506 12.2400000000000020
 26.9082414512728860 10.6617560467307673 12.2400000000000020
