Pb  I  N  C  N  H  N  C  N  H  N  C  N  H  N  C  N  H Pb  I  N  C  N  H  N  C  N  H  N  C  N  H  N  C  N  H 
 1.0000000000000000
    30.4621601335164698   10.1540533778388227    0.0000000000000000
   -10.1540533778388227   30.4621601335164698    0.0000000000000000
     0.0000000000000000    0.0000000000000000   45.0151803301504927
 Pb  I   N   C   N   H   N   C   N   H   N   C   N   H   N   C   N   H   Pb  I   N   C   N   H   N   C   N   H   N   C   N   H   N   C   N   H  
  20  80  10  50  10 160  10  50  10 160  10  50  10 160  10  50  10 160  20  80  10  50  10 160  10  50  10 160  10  50  10 160  10  50  10 160
Cartesian
  2.5385133444597061  2.5385133444597061 28.0075901650752428
  2.5385133444597066 12.6925667222985279 28.0075901650752428
  2.5385133444597052 22.8466201001373506 28.0075901650752428
  2.5385133444597088 33.0006734779761786 28.0075901650752428
 12.6925667222985332 12.6925667222985314 28.0075901650752428
 12.6925667222985314 22.8466201001373506 28.0075901650752428
 12.6925667222985332 33.0006734779761786 28.0075901650752428
 22.8466201001373577 12.6925667222985332 28.0075901650752428
 22.8466201001373541 22.8466201001373577 28.0075901650752428
 -7.6155400333791183 22.8466201001373506 28.0075901650752428
  7.6155400333791183  7.6155400333791192 28.0075901650752428
  7.6155400333791201 17.7695934112179401 28.0075901650752428
  7.6155400333791174 27.9236467890567610 28.0075901650752428
 17.7695934112179472  7.6155400333791201 28.0075901650752428
 17.7695934112179472 17.7695934112179401 28.0075901650752428
 17.7695934112179472 27.9236467890567646 28.0075901650752428
 17.7695934112179437 38.0777001668955961 28.0075901650752428
 -2.5385133444597057  7.6155400333791192 28.0075901650752428
 -2.5385133444597039 17.7695934112179401 28.0075901650752428
 -2.5385133444597061 27.9236467890567646 28.0075901650752428
  2.5385133444597061  2.5385133444597061 24.4175901650752429
  2.5385133444597066 12.6925667222985279 24.4175901650752429
  2.5385133444597052 22.8466201001373506 24.4175901650752429
  2.5385133444597088 33.0006734779761786 24.4175901650752429
 12.6925667222985332 12.6925667222985314 24.4175901650752429
 12.6925667222985314 22.8466201001373506 24.4175901650752429
 12.6925667222985332 33.0006734779761786 24.4175901650752429
 22.8466201001373577 12.6925667222985332 24.4175901650752429
 22.8466201001373541 22.8466201001373577 24.4175901650752429
 -7.6155400333791183 22.8466201001373506 24.4175901650752429
  7.6155400333791183  7.6155400333791192 24.4175901650752429
  7.6155400333791201 17.7695934112179401 24.4175901650752429
  7.6155400333791174 27.9236467890567610 24.4175901650752429
 17.7695934112179472  7.6155400333791201 24.4175901650752429
 17.7695934112179472 17.7695934112179401 24.4175901650752429
 17.7695934112179472 27.9236467890567646 24.4175901650752429
 17.7695934112179437 38.0777001668955961 24.4175901650752429
 -2.5385133444597057  7.6155400333791192 24.4175901650752429
 -2.5385133444597039 17.7695934112179401 24.4175901650752429
 -2.5385133444597061 27.9236467890567646 24.4175901650752429
  0.0000000000000000  0.0000000000000000 28.0075901650752428
  0.0000000000000009 10.1540533778388227 28.0075901650752428
  0.0000000000000018 20.3081067556776453 28.0075901650752428
  0.0000000000000018 30.4621601335164733 28.0075901650752428
 10.1540533778388244 10.1540533778388244 28.0075901650752428
 10.1540533778388244 20.3081067556776453 28.0075901650752428
 10.1540533778388244 30.4621601335164769 28.0075901650752428
 20.3081067556776453 10.1540533778388227 28.0075901650752428
 20.3081067556776489 20.3081067556776489 28.0075901650752428
 20.3081067556776418 30.4621601335164733 28.0075901650752428
 -5.0770266889194113 30.4621601335164733 28.0075901650752428
  5.0770266889194122 10.1540533778388227 28.0075901650752428
  5.0770266889194140 20.3081067556776453 28.0075901650752428
  5.0770266889194140 30.4621601335164698 28.0075901650752428
 15.2310800667582349 10.1540533778388244 28.0075901650752428
 15.2310800667582384 20.3081067556776453 28.0075901650752428
 15.2310800667582313 30.4621601335164769 28.0075901650752428
 25.3851334445970593 10.1540533778388244 28.0075901650752428
 25.3851334445970629 20.3081067556776489 28.0075901650752428
 -5.0770266889194113 20.3081067556776489 28.0075901650752428
  0.0000000000000004  5.0770266889194113 28.0075901650752428
  0.0000000000000000 15.2310800667582384 28.0075901650752428
  0.0000000000000000 25.3851334445970558 28.0075901650752428
 10.1540533778388280  5.0770266889194149 28.0075901650752428
 10.1540533778388244 15.2310800667582402 28.0075901650752428
 10.1540533778388209 25.3851334445970593 28.0075901650752428
 10.1540533778388262 35.5391868224358802 28.0075901650752428
 20.3081067556776418 15.2310800667582402 28.0075901650752428
 20.3081067556776489 25.3851334445970593 28.0075901650752428
 20.3081067556776489 35.5391868224358802 28.0075901650752428
  5.0770266889194122  5.0770266889194122 28.0075901650752428
  5.0770266889194122 15.2310800667582384 28.0075901650752428
  5.0770266889194131 25.3851334445970558 28.0075901650752428
 15.2310800667582384  5.0770266889194122 28.0075901650752428
 15.2310800667582367 15.2310800667582384 28.0075901650752428
 15.2310800667582402 25.3851334445970629 28.0075901650752428
 15.2310800667582402 35.5391868224358802 28.0075901650752428
 25.3851334445970593 15.2310800667582402 28.0075901650752428
 -5.0770266889194113 15.2310800667582384 28.0075901650752428
 -5.0770266889194078 25.3851334445970593 28.0075901650752428
  2.5385133444597061  2.5385133444597061 31.5975901650752462
  2.5385133444597066 12.6925667222985279 31.5975901650752462
  2.5385133444597052 22.8466201001373506 31.5975901650752462
  2.5385133444597088 33.0006734779761786 31.5975901650752462
 12.6925667222985332 12.6925667222985314 31.5975901650752462
 12.6925667222985314 22.8466201001373506 31.5975901650752462
 12.6925667222985332 33.0006734779761786 31.5975901650752462
 22.8466201001373577 12.6925667222985332 31.5975901650752462
 22.8466201001373541 22.8466201001373577 31.5975901650752462
 -7.6155400333791183 22.8466201001373506 31.5975901650752462
  7.6155400333791183  7.6155400333791192 31.5975901650752462
  7.6155400333791201 17.7695934112179401 31.5975901650752462
  7.6155400333791174 27.9236467890567610 31.5975901650752462
 17.7695934112179472  7.6155400333791201 31.5975901650752462
 17.7695934112179472 17.7695934112179401 31.5975901650752462
 17.7695934112179472 27.9236467890567646 31.5975901650752462
 17.7695934112179437 38.0777001668955961 31.5975901650752462
 -2.5385133444597057  7.6155400333791192 31.5975901650752462
 -2.5385133444597039 17.7695934112179401 31.5975901650752462
 -2.5385133444597061 27.9236467890567646 31.5975901650752462
  2.5465561244297374  6.6853792362743780 18.0035493961519037
  2.5465561244297383 16.8394326141131998 18.0035493961519037
  2.5465561244297392 26.9934859919520278 18.0035493961519037
 12.7006095022685646  6.6853792362743780 18.0035493961519037
 12.7006095022685628 16.8394326141131998 18.0035493961519037
 12.7006095022685681 26.9934859919520278 18.0035493961519037
 12.7006095022685628 37.1475393697908487 18.0035493961519037
 22.8546628801073872 16.8394326141131998 18.0035493961519037
 22.8546628801073872 26.9934859919520314 18.0035493961519037
 -7.6074972534090843 26.9934859919520278 18.0035493961519037
  2.5746856148072808  8.0812638509856267 18.4450047113663516
  2.5746856148072821 18.2353172288244494 18.4450047113663516
  2.5746856148072865 28.3893706066632703 18.4450047113663516
 12.7287389926461074  8.0812638509856285 18.4450047113663516
 12.7287389926461039 18.2353172288244494 18.4450047113663516
 12.7287389926461039 28.3893706066632703 18.4450047113663516
 22.8827923704849283  8.0812638509856320 18.4450047113663516
 22.8827923704849248 18.2353172288244494 18.4450047113663516
 22.8827923704849248 28.3893706066632703 18.4450047113663516
 -7.5793677630315432 28.3893706066632703 18.4450047113663516
  1.9594386114708660  8.2601353667740351 19.8430320128339801
  1.9594386114708682 18.4141887446128614 19.8430320128339801
  1.9594386114708655 28.5682421224516787 19.8430320128339801
 12.1134919893096900  8.2601353667740387 19.8430320128339801
 12.1134919893096935 18.4141887446128649 19.8430320128339801
 12.1134919893096900 28.5682421224516787 19.8430320128339801
 22.2675453671485144  8.2601353667740369 19.8430320128339801
 22.2675453671485180 18.4141887446128649 19.8430320128339801
 22.2675453671485180 28.5682421224516823 19.8430320128339801
 -8.1946147663679589 28.5682421224516823 19.8430320128339801
  2.8147545721585518  7.6255422477647592 20.9491485172145246
  2.8147545721585523 17.7795956256035872 20.9491485172145246
  2.8147545721585541 27.9336490034424116 20.9491485172145246
 12.9688079499973767  7.6255422477647663 20.9491485172145246
 12.9688079499973767 17.7795956256035872 20.9491485172145246
 12.9688079499973767 27.9336490034424116 20.9491485172145246
 12.9688079499973767 38.0877023812812396 20.9491485172145246
 23.1228613278362012 17.7795956256035872 20.9491485172145246
 23.1228613278362012 27.9336490034424081 20.9491485172145246
 -7.3392988056802704 27.9336490034424116 20.9491485172145246
  2.2419607299145867  7.9426178092071327 22.3357882634943898
  2.2419607299145863 18.0966711870459598 22.3357882634943898
  2.2419607299145845 28.2507245648847842 22.3357882634943898
 12.3960141077534107  7.9426178092071336 22.3357882634943898
 12.3960141077534090 18.0966711870459598 22.3357882634943898
 12.3960141077534090 28.2507245648847842 22.3357882634943898
 22.5500674855922405  7.9426178092071336 22.3357882634943898
 22.5500674855922298 18.0966711870459598 22.3357882634943898
 22.5500674855922334 28.2507245648847842 22.3357882634943898
 -7.9120926479242399 28.2507245648847842 22.3357882634943898
  3.0880592785294145  7.2999895785298712 23.4429834756677664
  3.0880592785294132 17.4540429563686956 23.4429834756677664
  3.0880592785294132 27.6080963342075165 23.4429834756677664
 13.2421126563682385  7.2999895785298712 23.4429834756677664
 13.2421126563682332 17.4540429563686956 23.4429834756677664
 13.2421126563682385 27.6080963342075165 23.4429834756677664
 13.2421126563682403 37.7621497120463374 23.4429834756677664
 23.3961660342070594 17.4540429563686956 23.4429834756677664
 23.3961660342070594 27.6080963342075236 23.4429834756677664
 -7.0659940993094112 27.6080963342075165 23.4429834756677664
  2.5397802371029909  7.6055195570637562 24.7639818234497540
  2.5397802371029909 17.7595729349025788 24.7639818234497540
  2.5397802371029901 27.9136263127414068 24.7639818234497540
 12.6938336149418163  7.6055195570637508 24.7639818234497540
 12.6938336149418198 17.7595729349025788 24.7639818234497540
 12.6938336149418181 27.9136263127414068 24.7639818234497540
 12.6938336149418198 38.0676796905802206 24.7639818234497540
 22.8478869927806407 17.7595729349025788 24.7639818234497540
 22.8478869927806372 27.9136263127414068 24.7639818234497540
 -7.6142731407358379 27.9136263127413997 24.7639818234497540
  2.8367175035419314  6.6412039166771644 17.0000000000000000
  2.8367175035419336 16.7952572945159844 17.0000000000000000
  2.8367175035419354 26.9493106723548124 17.0000000000000000
 12.9907708813807581  6.6412039166771599 17.0000000000000000
 12.9907708813807616 16.7952572945159915 17.0000000000000000
 12.9907708813807616 26.9493106723548124 17.0000000000000000
 12.9907708813807581 37.1033640501936404 17.0000000000000000
 23.1448242592195790 16.7952572945159844 17.0000000000000000
 23.1448242592195754 26.9493106723548124 17.0000000000000000
 -7.3173358742968908 26.9493106723548124 17.0000000000000000
  3.2167792253486764  6.1125664929361916 18.5644529715017619
  3.2167792253486773 16.2666198707750169 18.5644529715017619
  3.2167792253486773 26.4206732486138378 18.5644529715017619
 13.3708326031875018  6.1125664929361907 18.5644529715017619
 13.3708326031874964 16.2666198707750169 18.5644529715017619
 13.3708326031875000 26.4206732486138414 18.5644529715017619
 13.3708326031875000 36.5747266264526729 18.5644529715017619
 23.5248859810263227 16.2666198707750169 18.5644529715017619
 23.5248859810263262 26.4206732486138378 18.5644529715017619
 -6.9372741524901489 26.4206732486138414 18.5644529715017619
  1.5805955022760825  6.2940897193851058 18.0907652569767166
  1.5805955022760836 16.4481430972239302 18.0907652569767166
  1.5805955022760827 26.6021964750627582 18.0907652569767166
 11.7346488801149071  6.2940897193851040 18.0907652569767166
 11.7346488801149054 16.4481430972239302 18.0907652569767166
 11.7346488801149107 26.6021964750627546 18.0907652569767166
 11.7346488801149107 36.7562498529015755 18.0907652569767166
 21.8887022579537280 16.4481430972239266 18.0907652569767166
 21.8887022579537316 26.6021964750627546 18.0907652569767166
 -8.5734578755627417 26.6021964750627511 18.0907652569767166
  3.6217548529530870  8.4576214894358372 18.4388205473381426
  3.6217548529530861 18.6116748672746617 18.4388205473381426
  3.6217548529530887 28.7657282451134826 18.4388205473381426
 13.7758082307919132  8.4576214894358301 18.4388205473381426
 13.7758082307919079 18.6116748672746617 18.4388205473381426
 13.7758082307919167 28.7657282451134826 18.4388205473381426
 23.9298616086307376  8.4576214894358355 18.4388205473381426
 23.9298616086307305 18.6116748672746617 18.4388205473381426
 23.9298616086307412 28.7657282451134861 18.4388205473381426
 -6.5322985248857357 28.7657282451134755 18.4388205473381426
  1.9934169116172593  8.6997102964407826 17.7255680102572803
  1.9934169116172580 18.8537636742796053 17.7255680102572803
  1.9934169116172615 29.0078170521184262 17.7255680102572803
 12.1474702894560842  8.6997102964407809 17.7255680102572803
 12.1474702894560771 18.8537636742796053 17.7255680102572803
 12.1474702894560806 29.0078170521184262 17.7255680102572803
 22.3015236672949086  8.6997102964407844 17.7255680102572803
 22.3015236672949015 18.8537636742796124 17.7255680102572803
 22.3015236672949015 29.0078170521184262 17.7255680102572803
 -8.1606364662215665 29.0078170521184298 17.7255680102572803
  1.8666856406750405  9.3509134812259944 20.0391726627904987
  1.8666856406750396 19.5049668590648260 20.0391726627904987
  1.8666856406750423 29.6590202369036540 20.0391726627904987
 12.0207390185138632  9.3509134812260015 20.0391726627904987
 12.0207390185138614 19.5049668590648224 20.0391726627904987
 12.0207390185138596 29.6590202369036504 20.0391726627904987
 22.1747923963526858  9.3509134812260015 20.0391726627904987
 22.1747923963526894 19.5049668590648224 20.0391726627904987
 22.1747923963526858 29.6590202369036575 20.0391726627904987
 -8.2873677371637822 29.6590202369036575 20.0391726627904987
  0.9359260868801011  7.8257515909990802 19.8605800588381385
  0.9359260868801007 17.9798049688379038 19.8605800588381385
  0.9359260868800998 28.1338583466767318 19.8605800588381385
 11.0899794647189296  7.8257515909990802 19.8605800588381385
 11.0899794647189278 17.9798049688379038 19.8605800588381385
 11.0899794647189278 28.1338583466767389 19.8605800588381385
 21.2440328425577505  7.8257515909990767 19.8605800588381385
 21.2440328425577540 17.9798049688379038 19.8605800588381385
 21.2440328425577434 28.1338583466767389 19.8605800588381385
 -9.2181272909587193 28.1338583466767318 19.8605800588381385
  2.8396205323954349  6.5228561074039719 20.8149674742671280
  2.8396205323954353 16.6769094852427955 20.8149674742671280
  2.8396205323954353 26.8309628630816164 20.8149674742671280
 12.9936739102342589  6.5228561074039684 20.8149674742671280
 12.9936739102342589 16.6769094852427955 20.8149674742671280
 12.9936739102342571 26.8309628630816164 20.8149674742671280
 12.9936739102342589 36.9850162409204373 20.8149674742671280
 23.1477272880730780 16.6769094852427955 20.8149674742671280
 23.1477272880730780 26.8309628630816164 20.8149674742671280
 -7.3144328454433909 26.8309628630816164 20.8149674742671280
  3.8541314139854008  8.0162178981443510 20.8837014144715312
  3.8541314139854004 18.1702712759831790 20.8837014144715312
  3.8541314139853995 28.3243246538220035 20.8837014144715312
 14.0081847918242239  8.0162178981443493 20.8837014144715312
 14.0081847918242239 18.1702712759831790 20.8837014144715312
 14.0081847918242222 28.3243246538220035 20.8837014144715312
 14.0081847918242293 38.4783780316608244 20.8837014144715312
 24.1622381696630519 18.1702712759831826 20.8837014144715312
 24.1622381696630519 28.3243246538220106 20.8837014144715312
 -6.2999219638534258 28.3243246538220035 20.8837014144715312
  2.2219356613392418  9.0446839811090776 22.4843125400445807
  2.2219356613392440 19.1987373589478985 22.4843125400445807
  2.2219356613392414 29.3527907367867265 22.4843125400445807
 12.3759890391780640  9.0446839811090758 22.4843125400445807
 12.3759890391780623 19.1987373589478949 22.4843125400445807
 12.3759890391780658 29.3527907367867193 22.4843125400445807
 22.5300424170168867  9.0446839811090740 22.4843125400445807
 22.5300424170168867 19.1987373589478949 22.4843125400445807
 22.5300424170168867 29.3527907367867193 22.4843125400445807
 -7.9321177164995786 29.3527907367867229 22.4843125400445807
  1.2001863349155357  7.5585025855123753 22.4010930041076861
  1.2001863349155366 17.7125559633511962 22.4010930041076861
  1.2001863349155393 27.8666093411900242 22.4010930041076861
 11.3542397127543602  7.5585025855123824 22.4010930041076861
 11.3542397127543602 17.7125559633512033 22.4010930041076861
 11.3542397127543619 27.8666093411900277 22.4010930041076861
 21.5082930905931846  7.5585025855123789 22.4010930041076861
 21.5082930905931811 17.7125559633511998 22.4010930041076861
 21.5082930905931811 27.8666093411900206 22.4010930041076861
 -8.9538670429232887 27.8666093411900277 22.4010930041076861
  4.1322107138491972  7.6802167844779898 23.3819834012736898
  4.1322107138491981 17.8342701623168161 23.3819834012736898
  4.1322107138491990 27.9883235401556405 23.3819834012736898
 14.2862640916880199  7.6802167844779898 23.3819834012736898
 14.2862640916880181 17.8342701623168125 23.3819834012736898
 14.2862640916880199 27.9883235401556405 23.3819834012736898
 14.2862640916880146 38.1423769179944685 23.3819834012736898
 24.4403174695268390 17.8342701623168125 23.3819834012736898
 24.4403174695268390 27.9883235401556405 23.3819834012736898
 -6.0218426639896272 27.9883235401556441 23.3819834012736898
  3.1109191598030335  6.1963641933148752 23.3014337561493683
  3.1109191598030330 16.3504175711536952 23.3014337561493683
  3.1109191598030330 26.5044709489925197 23.3014337561493683
 13.2649725376418601  6.1963641933148761 23.3014337561493683
 13.2649725376418566 16.3504175711537023 23.3014337561493683
 13.2649725376418548 26.5044709489925268 23.3014337561493683
 13.2649725376418601 36.6585243268313405 23.3014337561493683
 23.4190259154806810 16.3504175711537023 23.3014337561493683
 23.4190259154806810 26.5044709489925268 23.3014337561493683
 -7.0431342180357843 26.5044709489925268 23.3014337561493683
  1.5662323618550138  7.2315678476769101 24.8441808095417542
  1.5662323618550129 17.3856212255157381 24.8441808095417542
  1.5662323618550111 27.5396746033545554 24.8441808095417542
 11.7202857396938356  7.2315678476769101 24.8441808095417542
 11.7202857396938356 17.3856212255157381 24.8441808095417542
 11.7202857396938391 27.5396746033545625 24.8441808095417542
 11.7202857396938356 37.6937279811933763 24.8441808095417542
 21.8743391175326529 17.3856212255157381 24.8441808095417542
 21.8743391175326565 27.5396746033545554 24.8441808095417542
 -8.5878210159838133 27.5396746033545554 24.8441808095417542
  3.1365597212610590  7.1546092160060484 25.4945901650752447
  3.1365597212610572 17.3086625938448755 25.4945901650752447
  3.1365597212610599 27.4627159716836928 25.4945901650752447
 13.2906130990998825  7.1546092160060510 25.4945901650752447
 13.2906130990998879 17.3086625938448755 25.4945901650752447
 13.2906130990998896 27.4627159716836999 25.4945901650752447
 13.2906130990998843 37.6167693495225279 25.4945901650752447
 23.4446664769387070 17.3086625938448719 25.4945901650752447
 23.4446664769387070 27.4627159716836964 25.4945901650752447
 -7.0174936565777646 27.4627159716836964 25.4945901650752447
  2.5360386622592568  8.6396265651210840 24.9210609886066159
  2.5360386622592550 18.7936799429599048 24.9210609886066159
  2.5360386622592568 28.9477333207987257 24.9210609886066159
 12.6900920400980777  8.6396265651210857 24.9210609886066159
 12.6900920400980777 18.7936799429599120 24.9210609886066159
 12.6900920400980795 28.9477333207987328 24.9210609886066159
 22.8441454179369039  8.6396265651210822 24.9210609886066159
 22.8441454179369003 18.7936799429599120 24.9210609886066159
 22.8441454179369039 28.9477333207987293 24.9210609886066159
 -7.6180147155795694 28.9477333207987293 24.9210609886066159
 -2.5304705644896739 32.0705126808714311 18.0035493961519037
  7.6235828133491523 11.7624059251937858 18.0035493961519037
  7.6235828133491514 21.9164593030326138 18.0035493961519037
  7.6235828133491523 32.0705126808714382 18.0035493961519037
 17.7776361911879732 11.7624059251937858 18.0035493961519037
 17.7776361911879732 21.9164593030326174 18.0035493961519037
 17.7776361911879732 32.0705126808714382 18.0035493961519037
 27.9316895690267941 11.7624059251937894 18.0035493961519037
 -2.5304705644896730 11.7624059251937911 18.0035493961519037
 -2.5304705644896757 21.9164593030326174 18.0035493961519037
  7.6517123037266934  3.0042371620662163 18.4450047113663516
  7.6517123037266925 13.1582905399050460 18.4450047113663516
  7.6517123037266925 23.3123439177438669 18.4450047113663516
  7.6517123037266934 33.4663972955826807 18.4450047113663516
 17.8057656815655143 13.1582905399050425 18.4450047113663516
 17.8057656815655179 23.3123439177438740 18.4450047113663516
 17.8057656815655250 33.4663972955826807 18.4450047113663516
 27.9598190594043388 13.1582905399050460 18.4450047113663516
 -2.5023410741121248 13.1582905399050460 18.4450047113663516
 -2.5023410741121301 23.3123439177438669 18.4450047113663516
  7.0364653003902786  3.1831086778546229 19.8430320128339801
  7.0364653003902760 13.3371620556934474 19.8430320128339801
  7.0364653003902768 23.4912154335322683 19.8430320128339801
  7.0364653003902777 33.6452688113710892 19.8430320128339801
 17.1905186782291004 13.3371620556934438 19.8430320128339801
 17.1905186782291004 23.4912154335322754 19.8430320128339801
 17.1905186782290968 33.6452688113710892 19.8430320128339801
 27.3445720560679213 13.3371620556934474 19.8430320128339801
 -3.1175880774485494 13.3371620556934509 19.8430320128339801
 -3.1175880774485449 23.4912154335322683 19.8430320128339801
 -2.2622721167608599 33.0106756923618221 20.9491485172145246
  7.8917812610779627 12.7025689366841696 20.9491485172145246
  7.8917812610779663 22.8566223145229941 20.9491485172145246
  7.8917812610779645 33.0106756923618221 20.9491485172145246
 18.0458346389167872 12.7025689366841696 20.9491485172145246
 18.0458346389167872 22.8566223145229941 20.9491485172145246
 18.0458346389167907 33.0106756923618221 20.9491485172145246
 28.1998880167556116 12.7025689366841732 20.9491485172145246
 -2.2622721167608582 12.7025689366841696 20.9491485172145246
 -2.2622721167608573 22.8566223145230047 20.9491485172145246
  7.3189874188339976  2.8655911202877205 22.3357882634943898
  7.3189874188339967 13.0196444981265458 22.3357882634943898
  7.3189874188340003 23.1736978759653667 22.3357882634943898
  7.3189874188340038 33.3277512538041876 22.3357882634943898
 17.4730407966728194 13.0196444981265458 22.3357882634943898
 17.4730407966728265 23.1736978759653702 22.3357882634943898
 17.4730407966728265 33.3277512538041947 22.3357882634943898
 27.6270941745116474 13.0196444981265493 22.3357882634943898
 -2.8350659590048206 13.0196444981265511 22.3357882634943898
 -2.8350659590048179 23.1736978759653773 22.3357882634943898
 -1.9889674103899981 32.6851230231269341 23.4429834756677664
  8.1650859674488245 12.3770162674492852 23.4429834756677664
  8.1650859674488245 22.5310696452881061 23.4429834756677664
  8.1650859674488263 32.6851230231269270 23.4429834756677664
 18.3191393452876454 12.3770162674492816 23.4429834756677664
 18.3191393452876561 22.5310696452881096 23.4429834756677664
 18.3191393452876525 32.6851230231269341 23.4429834756677664
 28.4731927231264699 12.3770162674492816 23.4429834756677664
 -1.9889674103899997 12.3770162674492834 23.4429834756677664
 -1.9889674103899964 22.5310696452881061 23.4429834756677664
 -2.5372464518164177 32.9906530016608102 24.7639818234497540
  7.6168069260224041 12.6825462459831684 24.7639818234497540
  7.6168069260224014 22.8365996238219893 24.7639818234497540
  7.6168069260224058 32.9906530016608102 24.7639818234497540
 17.7708603038612232 12.6825462459831702 24.7639818234497540
 17.7708603038612267 22.8365996238219893 24.7639818234497540
 17.7708603038612267 32.9906530016608173 24.7639818234497540
 27.9249136817000547 12.6825462459831719 24.7639818234497540
 -2.5372464518164204 12.6825462459831702 24.7639818234497540
 -2.5372464518164159 22.8365996238219893 24.7639818234497540
 -2.2403091853774795 32.0263373612742299 17.0000000000000000
  7.9137441924613467 11.7182306055965775 17.0000000000000000
  7.9137441924613476 21.8722839834354019 17.0000000000000000
  7.9137441924613476 32.0263373612742299 17.0000000000000000
 18.0677975703001721 11.7182306055965793 17.0000000000000000
 18.0677975703001792 21.8722839834354055 17.0000000000000000
 18.0677975703001721 32.0263373612742299 17.0000000000000000
 28.2218509481389965 11.7182306055965810 17.0000000000000000
 -2.2403091853774750 11.7182306055965775 17.0000000000000000
 -2.2403091853774786 21.8722839834354019 17.0000000000000000
 -1.8602474635707367 31.4976999375332518 18.5644529715017619
  8.2938059142680860 11.1895931818556029 18.5644529715017619
  8.2938059142680878 21.3436465596944274 18.5644529715017619
  8.2938059142680860 31.4976999375332483 18.5644529715017619
 18.4478592921069087 11.1895931818556029 18.5644529715017619
 18.4478592921069122 21.3436465596944345 18.5644529715017619
 18.4478592921069122 31.4976999375332483 18.5644529715017619
 28.6019126699457331 11.1895931818556029 18.5644529715017619
 -1.8602474635707373 11.1895931818556065 18.5644529715017619
 -1.8602474635707331 21.3436465596944274 18.5644529715017619
 -3.4964311866433277 31.6792231639821686 18.0907652569767166
  6.6576221911954940 11.3711164083045162 18.0907652569767166
  6.6576221911954931 21.5251697861433477 18.0907652569767166
  6.6576221911954967 31.6792231639821686 18.0907652569767166
 16.8116755690343211 11.3711164083045162 18.0907652569767166
 16.8116755690343211 21.5251697861433477 18.0907652569767166
 16.8116755690343211 31.6792231639821722 18.0907652569767166
 26.9657289468731420 11.3711164083045198 18.0907652569767166
 -3.4964311866433269 11.3711164083045233 18.0907652569767166
 -3.4964311866433309 21.5251697861433477 18.0907652569767166
  8.6987815418725010  3.3805948005164255 18.4388205473381426
  8.6987815418724974 13.5346481783552477 18.4388205473381426
  8.6987815418725027 23.6887015561940686 18.4388205473381426
  8.6987815418725045 33.8427549340328895 18.4388205473381426
 18.8528349197113272 13.5346481783552530 18.4388205473381426
 18.8528349197113236 23.6887015561940757 18.4388205473381426
 18.8528349197113201 33.8427549340328895 18.4388205473381426
 29.0068882975501445 13.5346481783552548 18.4388205473381426
 -1.4552718359663266 13.5346481783552495 18.4388205473381426
 -1.4552718359663235 23.6887015561940686 18.4388205473381426
  7.0704436005366702  3.6226836075213695 17.7255680102572803
  7.0704436005366729 13.7767369853601913 17.7255680102572803
  7.0704436005366729 23.9307903631990158 17.7255680102572803
  7.0704436005366738 34.0848437410378438 17.7255680102572803
 17.2244969783754911 13.7767369853601913 17.7255680102572803
 17.2244969783754946 23.9307903631990158 17.7255680102572803
 17.2244969783754911 34.0848437410378438 17.7255680102572803
 27.3785503562143191 13.7767369853601949 17.7255680102572803
 -3.0836097773021560 13.7767369853601984 17.7255680102572803
 -3.0836097773021534 23.9307903631990193 17.7255680102572803
  6.9437123295944527  4.2738867923065857 20.0391726627904987
  6.9437123295944527 14.4279401701454120 20.0391726627904987
  6.9437123295944554 24.5819935479842364 20.0391726627904987
  6.9437123295944492 34.7360469258230609 20.0391726627904987
 17.0977657074332718 14.4279401701454102 20.0391726627904987
 17.0977657074332754 24.5819935479842364 20.0391726627904987
 17.0977657074332754 34.7360469258230609 20.0391726627904987
 27.2518190852720963 14.4279401701454120 20.0391726627904987
 -3.2103410482443744 14.4279401701454120 20.0391726627904987
 -3.2103410482443708 24.5819935479842364 20.0391726627904987
  6.0129527757995120  2.7487249020796702 19.8605800588381385
  6.0129527757995147 12.9027782799184951 19.8605800588381385
  6.0129527757995165 23.0568316577573214 19.8605800588381385
  6.0129527757995138 33.2108850355961494 19.8605800588381385
 16.1670061536383329 12.9027782799184951 19.8605800588381385
 16.1670061536383400 23.0568316577573178 19.8605800588381385
 16.1670061536383400 33.2108850355961351 19.8605800588381385
 26.3210595314771574 12.9027782799184969 19.8605800588381385
 -4.1411006020393097 12.9027782799184987 19.8605800588381385
 -4.1411006020393124 23.0568316577573214 19.8605800588381385
 -2.2374061565239778 31.9079895520010339 20.8149674742671280
  7.9166472213148467 11.5998827963233833 20.8149674742671280
  7.9166472213148449 21.7539361741622095 20.8149674742671280
  7.9166472213148484 31.9079895520010268 20.8149674742671280
 18.0707005991536747 11.5998827963233850 20.8149674742671280
 18.0707005991536676 21.7539361741622059 20.8149674742671280
 18.0707005991536676 31.9079895520010268 20.8149674742671280
 28.2247539769924920 11.5998827963233850 20.8149674742671280
 -2.2374061565239760 11.5998827963233868 20.8149674742671280
 -2.2374061565239796 21.7539361741622095 20.8149674742671280
 -1.2228952749340092 33.4013513427414068 20.8837014144715312
  8.9311581029048099 13.0932445870637650 20.8837014144715312
  8.9311581029048135 23.2472979649025895 20.8837014144715312
  8.9311581029048170 33.4013513427414068 20.8837014144715312
 19.0852114807436308 13.0932445870637650 20.8837014144715312
 19.0852114807436379 23.2472979649025859 20.8837014144715312
 19.0852114807436344 33.4013513427414068 20.8837014144715312
 29.2392648585824553 13.0932445870637650 20.8837014144715312
 -1.2228952749340136 13.0932445870637650 20.8837014144715312
 -1.2228952749340092 23.2472979649025859 20.8837014144715312
  7.2989623502586536  3.9676572921896631 22.4843125400445807
  7.2989623502586536 14.1217106700284845 22.4843125400445807
  7.2989623502586536 24.2757640478673160 22.4843125400445807
  7.2989623502586554 34.4298174257061262 22.4843125400445807
 17.4530157280974763 14.1217106700284880 22.4843125400445807
 17.4530157280974727 24.2757640478673160 22.4843125400445807
 17.4530157280974763 34.4298174257061262 22.4843125400445807
 27.6070691059363007 14.1217106700284916 22.4843125400445807
 -2.8550910275801700 14.1217106700284933 22.4843125400445807
 -2.8550910275801709 24.2757640478673018 22.4843125400445807
  6.2772130238349497  2.4814758965929635 22.4010930041076861
  6.2772130238349479 12.6355292744317858 22.4010930041076861
  6.2772130238349506 22.7895826522706137 22.4010930041076861
  6.2772130238349551 32.9436360301094311 22.4010930041076861
 16.4312664016737706 12.6355292744317911 22.4010930041076861
 16.4312664016737742 22.7895826522706066 22.4010930041076861
 16.4312664016737777 32.9436360301094311 22.4010930041076861
 26.5853197795125951 12.6355292744317893 22.4010930041076861
 -3.8768403540038694 12.6355292744317893 22.4010930041076861
 -3.8768403540038738 22.7895826522706102 22.4010930041076861
 -0.9448159750702132 33.0653502290750509 23.3819834012736898
  9.2092374027686077 12.7572434733973985 23.3819834012736898
  9.2092374027686130 22.9112968512362265 23.3819834012736898
  9.2092374027686059 33.0653502290750509 23.3819834012736898
 19.3632907806074286 12.7572434733974021 23.3819834012736898
 19.3632907806074357 22.9112968512362229 23.3819834012736898
 19.3632907806074321 33.0653502290750581 23.3819834012736898
 29.5173441584462530 12.7572434733974038 23.3819834012736898
 -0.9448159750702154 12.7572434733974021 23.3819834012736898
 -0.9448159750702150 22.9112968512362336 23.3819834012736898
 -1.9661075291163739 31.5814976379119337 23.3014337561493683
  8.1879458487224461 11.2733908822342901 23.3014337561493683
  8.1879458487224497 21.4274442600731128 23.3014337561493683
  8.1879458487224497 31.5814976379119337 23.3014337561493683
 18.3419992265612706 11.2733908822342901 23.3014337561493683
 18.3419992265612706 21.4274442600731128 23.3014337561493683
 18.3419992265612741 31.5814976379119372 23.3014337561493683
 28.4960526044000915 11.2733908822342919 23.3014337561493683
 -1.9661075291163814 11.2733908822342883 23.3014337561493683
 -1.9661075291163783 21.4274442600731092 23.3014337561493683
 -3.5107943270644020 32.6167012922739730 24.8441808095417542
  6.6432590507744225 12.3085945365963241 24.8441808095417542
  6.6432590507744225 22.4626479144351414 24.8441808095417542
  6.6432590507744251 32.6167012922739659 24.8441808095417542
 16.7973124286132460 12.3085945365963205 24.8441808095417542
 16.7973124286132460 22.4626479144351414 24.8441808095417542
 16.7973124286132460 32.6167012922739659 24.8441808095417542
 26.9513658064520669 12.3085945365963241 24.8441808095417542
 -3.5107943270643966 12.3085945365963241 24.8441808095417542
 -3.5107943270644015 22.4626479144351450 24.8441808095417542
 -1.9404669676583524 32.5397426606031104 25.4945901650752447
  8.2135864101804721 12.2316359049254597 25.4945901650752447
  8.2135864101804721 22.3856892827642824 25.4945901650752447
  8.2135864101804756 32.5397426606031104 25.4945901650752447
 18.3676397880193001 12.2316359049254615 25.4945901650752447
 18.3676397880193001 22.3856892827642788 25.4945901650752447
 18.3676397880192965 32.5397426606031033 25.4945901650752447
 28.5216931658581245 12.2316359049254615 25.4945901650752447
 -1.9404669676583508 12.2316359049254562 25.4945901650752447
 -1.9404669676583506 22.3856892827642930 25.4945901650752447
  7.6130653511786672  3.5625998762016700 24.9210609886066159
  7.6130653511786699 13.7166532540404944 24.9210609886066159
  7.6130653511786672 23.8707066318793153 24.9210609886066159
  7.6130653511786708 34.0247600097181362 24.9210609886066159
 17.7671187290174899 13.7166532540404980 24.9210609886066159
 17.7671187290174935 23.8707066318793153 24.9210609886066159
 17.7671187290174899 34.0247600097181362 24.9210609886066159
 27.9211721068563143 13.7166532540404944 24.9210609886066159
 -2.5409880266601577 13.7166532540404962 24.9210609886066159
 -2.5409880266601519 23.8707066318793117 24.9210609886066159
  2.5465561244297383  8.5457008304838631 38.0116309339985818
  2.5465561244297366 18.6997542083226804 38.0116309339985818
  2.5465561244297348 28.8538075861615084 38.0116309339985818
 12.7006095022685610  8.5457008304838666 38.0116309339985818
 12.7006095022685628 18.6997542083226875 38.0116309339985818
 12.7006095022685663 28.8538075861615084 38.0116309339985818
 22.8546628801073872  8.5457008304838666 38.0116309339985818
 22.8546628801073872 18.6997542083226875 38.0116309339985818
 22.8546628801073837 28.8538075861615049 38.0116309339985818
 -7.6074972534090843 28.8538075861615191 38.0116309339985818
  2.5746856148072803  7.1498162157726082 37.5701756187841411
  2.5746856148072830 17.3038695936114379 37.5701756187841411
  2.5746856148072839 27.4579229714502517 37.5701756187841411
 12.7287389926461074  7.1498162157726100 37.5701756187841411
 12.7287389926461039 17.3038695936114308 37.5701756187841411
 12.7287389926461039 27.4579229714502517 37.5701756187841411
 12.7287389926461056 37.6119763492890868 37.5701756187841411
 22.8827923704849248 17.3038695936114308 37.5701756187841411
 22.8827923704849248 27.4579229714502517 37.5701756187841411
 -7.5793677630315432 27.4579229714502517 37.5701756187841411
  1.9594386114708655  6.9709446999842015 36.1721483173165055
  1.9594386114708673 17.1249980778230260 36.1721483173165055
  1.9594386114708664 27.2790514556618540 36.1721483173165055
 12.1134919893096900  6.9709446999842015 36.1721483173165055
 12.1134919893096935 17.1249980778230295 36.1721483173165055
 12.1134919893096900 27.2790514556618469 36.1721483173165055
 12.1134919893096935 37.4331048335006784 36.1721483173165055
 22.2675453671485180 17.1249980778230295 36.1721483173165055
 22.2675453671485215 27.2790514556618540 36.1721483173165055
 -8.1946147663679607 27.2790514556618540 36.1721483173165055
  2.8147545721585518  7.6055378189934775 35.0660318129359609
  2.8147545721585523 17.7595911968322966 35.0660318129359609
  2.8147545721585541 27.9136445746711281 35.0660318129359609
 12.9688079499973767  7.6055378189934828 35.0660318129359609
 12.9688079499973838 17.7595911968322966 35.0660318129359609
 12.9688079499973803 27.9136445746711317 35.0660318129359609
 12.9688079499973803 38.0676979525099597 35.0660318129359609
 23.1228613278362083 17.7595911968322966 35.0660318129359609
 23.1228613278362012 27.9136445746711317 35.0660318129359609
 -7.3392988056802722 27.9136445746711317 35.0660318129359609
  2.2419607299145867  7.2884622575511049 33.6793920666560993
  2.2419607299145863 17.4425156353899311 33.6793920666560993
  2.2419607299145863 27.5965690132287484 33.6793920666560993
 12.3960141077534107  7.2884622575511040 33.6793920666560993
 12.3960141077534090 17.4425156353899311 33.6793920666560993
 12.3960141077534125 27.5965690132287556 33.6793920666560993
 12.3960141077534143 37.7506223910675729 33.6793920666560993
 22.5500674855922334 17.4425156353899311 33.6793920666560993
 22.5500674855922334 27.5965690132287520 33.6793920666560993
 -7.9120926479242355 27.5965690132287484 33.6793920666560993
  3.0880592785294132  7.9310904882283664 32.5721968544827192
  3.0880592785294141 18.0851438660671846 32.5721968544827192
  3.0880592785294123 28.2391972439060162 32.5721968544827192
 13.2421126563682385  7.9310904882283566 32.5721968544827192
 13.2421126563682350 18.0851438660671846 32.5721968544827192
 13.2421126563682385 28.2391972439060197 32.5721968544827192
 23.3961660342070630  7.9310904882283539 32.5721968544827192
 23.3961660342070594 18.0851438660671846 32.5721968544827192
 23.3961660342070559 28.2391972439060162 32.5721968544827192
 -7.0659940993094068 28.2391972439060090 32.5721968544827192
  2.5397802371029905  7.6255605096944796 31.2511985067007316
  2.5397802371029901 17.7796138875333014 31.2511985067007316
  2.5397802371029901 27.9336672653721294 31.2511985067007316
 12.6938336149418163  7.6255605096944770 31.2511985067007316
 12.6938336149418198 17.7796138875333085 31.2511985067007316
 12.6938336149418198 27.9336672653721294 31.2511985067007316
 22.8478869927806372  7.6255605096944787 31.2511985067007316
 22.8478869927806336 17.7796138875333014 31.2511985067007316
 22.8478869927806407 27.9336672653721294 31.2511985067007316
 -7.6142731407358273 27.9336672653721294 31.2511985067007316
  2.8367175035419319  8.5898761500810767 39.0151803301504927
  2.8367175035419301 18.7439295279199030 39.0151803301504927
  2.8367175035419319 28.8979829057587239 39.0151803301504927
 12.9907708813807563  8.5898761500810714 39.0151803301504927
 12.9907708813807616 18.7439295279199030 39.0151803301504927
 12.9907708813807616 28.8979829057587168 39.0151803301504927
 23.1448242592195861  8.5898761500810785 39.0151803301504927
 23.1448242592195754 18.7439295279198959 39.0151803301504927
 23.1448242592195825 28.8979829057587168 39.0151803301504927
 -7.3173358742968944 28.8979829057587168 39.0151803301504927
  3.2167792253486760  9.1185135738220424 37.4507273586487344
  3.2167792253486756 19.2725669516608704 37.4507273586487344
  3.2167792253486738 29.4266203294996913 37.4507273586487344
 13.3708326031875018  9.1185135738220406 37.4507273586487344
 13.3708326031875053 19.2725669516608704 37.4507273586487344
 13.3708326031875071 29.4266203294996949 37.4507273586487344
 23.5248859810263262  9.1185135738220442 37.4507273586487344
 23.5248859810263298 19.2725669516608704 37.4507273586487344
 23.5248859810263298 29.4266203294996949 37.4507273586487344
 -6.9372741524901471 29.4266203294996949 37.4507273586487344
  1.5805955022760840  8.9369903473731291 37.9244150731737761
  1.5805955022760818 19.0910437252119536 37.9244150731737761
  1.5805955022760827 29.2450971030507745 37.9244150731737761
 11.7346488801149071  8.9369903473731274 37.9244150731737761
 11.7346488801149054 19.0910437252119607 37.9244150731737761
 11.7346488801149071 29.2450971030507816 37.9244150731737761
 21.8887022579537280  8.9369903473731291 37.9244150731737761
 21.8887022579537280 19.0910437252119536 37.9244150731737761
 21.8887022579537245 29.2450971030507745 37.9244150731737761
 -8.5734578755627435 29.2450971030507745 37.9244150731737761
  3.6217548529530843  6.7734585773223994 37.5763597828123466
  3.6217548529530861 16.9275119551612292 37.5763597828123466
  3.6217548529530887 27.0815653330000465 37.5763597828123466
 13.7758082307919114  6.7734585773223968 37.5763597828123466
 13.7758082307919096 16.9275119551612292 37.5763597828123466
 13.7758082307919167 27.0815653330000465 37.5763597828123466
 13.7758082307919167 37.2356187108388639 37.5763597828123466
 23.9298616086307341 16.9275119551612292 37.5763597828123466
 23.9298616086307341 27.0815653330000572 37.5763597828123466
 -6.5322985248857304 27.0815653330000430 37.5763597828123466
  1.9934169116172582  6.5313697703174567 38.2896123198932088
  1.9934169116172589 16.6854231481562856 38.2896123198932088
  1.9934169116172571 26.8394765259951065 38.2896123198932088
 12.1474702894560806  6.5313697703174594 38.2896123198932088
 12.1474702894560789 16.6854231481562820 38.2896123198932088
 12.1474702894560842 26.8394765259950994 38.2896123198932088
 12.1474702894560789 36.9935299038339380 38.2896123198932088
 22.3015236672949086 16.6854231481562856 38.2896123198932088
 22.3015236672949015 26.8394765259951065 38.2896123198932088
 -8.1606364662215682 26.8394765259951065 38.2896123198932088
  1.8666856406750407  5.8801665855322387 35.9760076673599869
  1.8666856406750405 16.0342199633710614 35.9760076673599869
  1.8666856406750405 26.1882733412099000 35.9760076673599869
 12.0207390185138649  5.8801665855322458 35.9760076673599869
 12.0207390185138667 16.0342199633710649 35.9760076673599869
 12.0207390185138685 26.1882733412098929 35.9760076673599869
 12.0207390185138703 36.3423267190487138 35.9760076673599869
 22.1747923963526965 16.0342199633710685 35.9760076673599869
 22.1747923963526929 26.1882733412099000 35.9760076673599869
 -8.2873677371637857 26.1882733412098965 35.9760076673599869
  0.9359260868800998  7.4053284757591564 36.1546002713123471
  0.9359260868800998 17.5593818535979835 36.1546002713123471
  0.9359260868800998 27.7134352314368044 36.1546002713123471
 11.0899794647189243  7.4053284757591555 36.1546002713123471
 11.0899794647189260 17.5593818535979835 36.1546002713123471
 11.0899794647189296 27.7134352314368080 36.1546002713123471
 21.2440328425577505  7.4053284757591520 36.1546002713123471
 21.2440328425577434 17.5593818535979764 36.1546002713123471
 21.2440328425577434 27.7134352314368044 36.1546002713123471
 -9.2181272909587264 27.7134352314368080 36.1546002713123471
  2.8396205323954349  8.7082239593542639 35.2002128558833576
  2.8396205323954327 18.8622773371930847 35.2002128558833576
  2.8396205323954344 29.0163307150319163 35.2002128558833576
 12.9936739102342607  8.7082239593542692 35.2002128558833576
 12.9936739102342571 18.8622773371930847 35.2002128558833576
 12.9936739102342589 29.0163307150319163 35.2002128558833576
 23.1477272880730816  8.7082239593542639 35.2002128558833576
 23.1477272880730780 18.8622773371930847 35.2002128558833576
 23.1477272880730780 29.0163307150319127 35.2002128558833576
 -7.3144328454433900 29.0163307150319127 35.2002128558833576
  3.8541314139853995  7.2148621686138865 35.1314789156789615
  3.8541314139853968 17.3689155464527154 35.1314789156789615
  3.8541314139853986 27.5229689242915363 35.1314789156789615
 14.0081847918242257  7.2148621686138803 35.1314789156789615
 14.0081847918242168 17.3689155464527154 35.1314789156789615
 14.0081847918242204 27.5229689242915363 35.1314789156789615
 14.0081847918242257 37.6770223021303536 35.1314789156789615
 24.1622381696630484 17.3689155464527190 35.1314789156789615
 24.1622381696630555 27.5229689242915363 35.1314789156789615
 -6.2999219638534196 27.5229689242915363 35.1314789156789615
  2.2219356613392418  6.1863960856491591 33.5308677901059085
  2.2219356613392414 16.3404494634879818 33.5308677901059085
  2.2219356613392440 26.4945028413268098 33.5308677901059085
 12.3759890391780676  6.1863960856491644 33.5308677901059085
 12.3759890391780623 16.3404494634879853 33.5308677901059085
 12.3759890391780676 26.4945028413268062 33.5308677901059085
 12.3759890391780623 36.6485562191656342 33.5308677901059085
 22.5300424170168903 16.3404494634879853 33.5308677901059085
 22.5300424170168867 26.4945028413268204 33.5308677901059085
 -7.9321177164995822 26.4945028413268169 33.5308677901059085
  1.2001863349155375  7.6725774812458623 33.6140873260427995
  1.2001863349155366 17.8266308590846876 33.6140873260427995
  1.2001863349155375 27.9806842369235120 33.6140873260427995
 11.3542397127543619  7.6725774812458685 33.6140873260427995
 11.3542397127543637 17.8266308590846876 33.6140873260427995
 11.3542397127543584 27.9806842369235120 33.6140873260427995
 21.5082930905931846  7.6725774812458631 33.6140873260427995
 21.5082930905931811 17.8266308590846876 33.6140873260427995
 21.5082930905931775 27.9806842369235120 33.6140873260427995
 -8.9538670429232905 27.9806842369235120 33.6140873260427995
  4.1322107138491964  7.5508632822802477 32.6331969288767993
  4.1322107138491964 17.7049166601190677 32.6331969288767993
  4.1322107138491946 27.8589700379578993 32.6331969288767993
 14.2862640916880181  7.5508632822802451 32.6331969288767993
 14.2862640916880217 17.7049166601190677 32.6331969288767993
 14.2862640916880217 27.8589700379578993 32.6331969288767993
 14.2862640916880199 38.0130234157967095 32.6331969288767993
 24.4403174695268390 17.7049166601190677 32.6331969288767993
 24.4403174695268390 27.8589700379578993 32.6331969288767993
 -6.0218426639896334 27.8589700379578922 32.6331969288767993
  3.1109191598030344  9.0347158734433624 32.7137465740011208
  3.1109191598030339 19.1887692512821815 32.7137465740011208
  3.1109191598030375 29.3428226291210059 32.7137465740011208
 13.2649725376418601  9.0347158734433570 32.7137465740011208
 13.2649725376418566 19.1887692512821815 32.7137465740011208
 13.2649725376418566 29.3428226291210059 32.7137465740011208
 23.4190259154806881  9.0347158734433570 32.7137465740011208
 23.4190259154806846 19.1887692512821850 32.7137465740011208
 23.4190259154806881 29.3428226291210130 32.7137465740011208
 -7.0431342180357914 29.3428226291210059 32.7137465740011208
  1.5662323618550125  7.9995122190813266 31.1709995206087314
  1.5662323618550147 18.1535655969201457 31.1709995206087314
  1.5662323618550129 28.3076189747589773 31.1709995206087314
 11.7202857396938374  7.9995122190813177 31.1709995206087314
 11.7202857396938391 18.1535655969201457 31.1709995206087314
 11.7202857396938338 28.3076189747589773 31.1709995206087314
 21.8743391175326600  7.9995122190813168 31.1709995206087314
 21.8743391175326529 18.1535655969201457 31.1709995206087314
 21.8743391175326565 28.3076189747589808 31.1709995206087314
 -8.5878210159838133 28.3076189747589702 31.1709995206087314
  3.1365597212610585  8.0764708507521892 30.5205901650752409
  3.1365597212610581 18.2305242285910083 30.5205901650752409
  3.1365597212610599 28.3845776064298398 30.5205901650752409
 13.2906130990998843  8.0764708507521838 30.5205901650752409
 13.2906130990998879 18.2305242285910118 30.5205901650752409
 13.2906130990998825 28.3845776064298398 30.5205901650752409
 23.4446664769387105  8.0764708507521892 30.5205901650752409
 23.4446664769387070 18.2305242285910118 30.5205901650752409
 23.4446664769387070 28.3845776064298434 30.5205901650752409
 -7.0174936565777664 28.3845776064298398 30.5205901650752409
  2.5360386622592554  6.5914535016371527 31.0941193415438732
  2.5360386622592577 16.7455068794759754 31.0941193415438732
  2.5360386622592559 26.8995602573148034 31.0941193415438732
 12.6900920400980777  6.5914535016371527 31.0941193415438732
 12.6900920400980795 16.7455068794759754 31.0941193415438732
 12.6900920400980795 26.8995602573148105 31.0941193415438732
 12.6900920400980795 37.0536136351536314 31.0941193415438732
 22.8441454179369039 16.7455068794759754 31.0941193415438732
 22.8441454179369003 26.8995602573148105 31.0941193415438732
 -7.6180147155795659 26.8995602573148034 31.0941193415438732
  7.6235828133491523  3.4686741415644482 38.0116309339985818
  7.6235828133491497 13.6227275194032718 38.0116309339985818
  7.6235828133491488 23.7767808972420980 38.0116309339985818
  7.6235828133491506 33.9308342750809118 38.0116309339985818
 17.7776361911879732 13.6227275194032771 38.0116309339985818
 17.7776361911879732 23.7767808972420980 38.0116309339985818
 17.7776361911879732 33.9308342750809118 38.0116309339985818
 27.9316895690267941 13.6227275194032753 38.0116309339985818
 -2.5304705644896779 13.6227275194032700 38.0116309339985818
 -2.5304705644896721 23.7767808972420873 38.0116309339985818
 -2.5023410741121292 32.5349496603696622 37.5701756187841411
  7.6517123037266943 12.2268429046920222 37.5701756187841411
  7.6517123037266925 22.3808962825308484 37.5701756187841411
  7.6517123037266934 32.5349496603696622 37.5701756187841411
 17.8057656815655143 12.2268429046920222 37.5701756187841411
 17.8057656815655179 22.3808962825308484 37.5701756187841411
 17.8057656815655214 32.5349496603696622 37.5701756187841411
 27.9598190594043388 12.2268429046920240 37.5701756187841411
 -2.5023410741121257 12.2268429046920257 37.5701756187841411
 -2.5023410741121301 22.3808962825308484 37.5701756187841411
 -3.1175880774485467 32.3560781445812680 36.1721483173165055
  7.0364653003902786 12.0479713889036155 36.1721483173165055
  7.0364653003902777 22.2020247667424400 36.1721483173165055
  7.0364653003902795 32.3560781445812680 36.1721483173165055
 17.1905186782291004 12.0479713889036120 36.1721483173165055
 17.1905186782291040 22.2020247667424400 36.1721483173165055
 17.1905186782291004 32.3560781445812680 36.1721483173165055
 27.3445720560679213 12.0479713889036155 36.1721483173165055
 -3.1175880774485494 12.0479713889036155 36.1721483173165055
 -3.1175880774485467 22.2020247667424400 36.1721483173165055
 -2.2622721167608599 32.9906712635905350 35.0660318129359609
  7.8917812610779645 12.6825645079128932 35.0660318129359609
  7.8917812610779636 22.8366178857517177 35.0660318129359609
  7.8917812610779734 32.9906712635905279 35.0660318129359609
 18.0458346389167872 12.6825645079128915 35.0660318129359609
 18.0458346389167907 22.8366178857517177 35.0660318129359609
 18.0458346389167872 32.9906712635905279 35.0660318129359609
 28.1998880167556116 12.6825645079128932 35.0660318129359609
 -2.2622721167608599 12.6825645079128915 35.0660318129359609
 -2.2622721167608617 22.8366178857517070 35.0660318129359609
 -2.8350659590048215 32.6735957021481624 33.6793920666560993
  7.3189874188339985 12.3654889464705171 33.6793920666560993
  7.3189874188340012 22.5195423243093416 33.6793920666560993
  7.3189874188340056 32.6735957021481553 33.6793920666560993
 17.4730407966728265 12.3654889464705171 33.6793920666560993
 17.4730407966728301 22.5195423243093344 33.6793920666560993
 17.4730407966728301 32.6735957021481624 33.6793920666560993
 27.6270941745116545 12.3654889464705189 33.6793920666560993
 -2.8350659590048242 12.3654889464705136 33.6793920666560993
 -2.8350659590048206 22.5195423243093344 33.6793920666560993
  8.1650859674488245  2.8540637993089537 32.5721968544827192
  8.1650859674488245 13.0081171771477777 32.5721968544827192
  8.1650859674488263 23.1621705549866022 32.5721968544827192
  8.1650859674488281 33.3162239328254159 32.5721968544827192
 18.3191393452876490 13.0081171771477795 32.5721968544827192
 18.3191393452876525 23.1621705549866057 32.5721968544827192
 18.3191393452876561 33.3162239328254230 32.5721968544827192
 28.4731927231264734 13.0081171771477795 32.5721968544827192
 -1.9889674103899981 13.0081171771477795 32.5721968544827192
 -1.9889674103899999 23.1621705549865986 32.5721968544827192
  7.6168069260224049  2.5485338207750687 31.2511985067007316
  7.6168069260224014 12.7025871986138927 31.2511985067007316
  7.6168069260224023 22.8566405764527190 31.2511985067007316
  7.6168069260224041 33.0106939542915470 31.2511985067007316
 17.7708603038612232 12.7025871986138910 31.2511985067007316
 17.7708603038612267 22.8566405764527119 31.2511985067007316
 17.7708603038612267 33.0106939542915470 31.2511985067007316
 27.9249136817000547 12.7025871986138927 31.2511985067007316
 -2.5372464518164186 12.7025871986138910 31.2511985067007316
 -2.5372464518164142 22.8566405764527154 31.2511985067007316
  7.9137441924613459  3.5128494611616619 39.0151803301504927
  7.9137441924613441 13.6669028390004854 39.0151803301504927
  7.9137441924613423 23.8209562168393134 39.0151803301504927
  7.9137441924613512 33.9750095946781272 39.0151803301504927
 18.0677975703001721 13.6669028390004890 39.0151803301504927
 18.0677975703001721 23.8209562168393134 39.0151803301504927
 18.0677975703001756 33.9750095946781272 39.0151803301504927
 28.2218509481389965 13.6669028390004890 39.0151803301504927
 -2.2403091853774781 13.6669028390004907 39.0151803301504927
 -2.2403091853774804 23.8209562168393099 39.0151803301504927
  8.2938059142680860  4.0414868849026320 37.4507273586487344
  8.2938059142680842 14.1955402627414564 37.4507273586487344
  8.2938059142680860 24.3495936405802809 37.4507273586487344
  8.2938059142680967 34.5036470184190946 37.4507273586487344
 18.4478592921069158 14.1955402627414600 37.4507273586487344
 18.4478592921069193 24.3495936405802844 37.4507273586487344
 18.4478592921069193 34.5036470184190946 37.4507273586487344
 28.6019126699457402 14.1955402627414564 37.4507273586487344
 -1.8602474635707336 14.1955402627414564 37.4507273586487344
 -1.8602474635707313 24.3495936405802809 37.4507273586487344
  6.6576221911954949  3.8599636584537187 37.9244150731737761
  6.6576221911954949 14.0140170362925431 37.9244150731737761
  6.6576221911954931 24.1680704141313640 37.9244150731737761
  6.6576221911954949 34.3221237919701849 37.9244150731737761
 16.8116755690343211 14.0140170362925467 37.9244150731737761
 16.8116755690343140 24.1680704141313676 37.9244150731737761
 16.8116755690343211 34.3221237919701849 37.9244150731737761
 26.9657289468731385 14.0140170362925431 37.9244150731737761
 -3.4964311866433282 14.0140170362925467 37.9244150731737761
 -3.4964311866433304 24.1680704141313640 37.9244150731737761
 -1.4552718359663217 32.1585920219194605 37.5763597828123466
  8.6987815418724992 11.8504852662418134 37.5763597828123466
  8.6987815418725027 22.0045386440806325 37.5763597828123466
  8.6987815418725063 32.1585920219194534 37.5763597828123466
 18.8528349197113236 11.8504852662418134 37.5763597828123466
 18.8528349197113272 22.0045386440806325 37.5763597828123466
 18.8528349197113272 32.1585920219194534 37.5763597828123466
 29.0068882975501481 11.8504852662418134 37.5763597828123466
 -1.4552718359663301 11.8504852662418099 37.5763597828123466
 -1.4552718359663270 22.0045386440806325 37.5763597828123466
 -3.0836097773021534 31.9165032149145134 38.2896123198932088
  7.0704436005366702 11.6083964592368680 38.2896123198932088
  7.0704436005366702 21.7624498370756889 38.2896123198932088
  7.0704436005366684 31.9165032149145169 38.2896123198932088
 17.2244969783754911 11.6083964592368680 38.2896123198932088
 17.2244969783754982 21.7624498370756960 38.2896123198932088
 17.2244969783754911 31.9165032149145169 38.2896123198932088
 27.3785503562143155 11.6083964592368680 38.2896123198932088
 -3.0836097773021525 11.6083964592368680 38.2896123198932088
 -3.0836097773021498 21.7624498370756925 38.2896123198932088
 -3.2103410482443708 31.2653000301292963 35.9760076673599869
  6.9437123295944536 10.9571932744516509 35.9760076673599869
  6.9437123295944563 21.1112466522904789 35.9760076673599869
  6.9437123295944563 31.2653000301292998 35.9760076673599869
 17.0977657074332825 10.9571932744516545 35.9760076673599869
 17.0977657074332825 21.1112466522904754 35.9760076673599869
 17.0977657074332825 31.2653000301292963 35.9760076673599869
 27.2518190852721034 10.9571932744516545 35.9760076673599869
 -3.2103410482443717 10.9571932744516527 35.9760076673599869
 -3.2103410482443753 21.1112466522904754 35.9760076673599869
  6.0129527757995112  2.3283017868397433 36.1546002713123471
  6.0129527757995138 12.4823551646785678 36.1546002713123471
  6.0129527757995120 22.6364085425173904 36.1546002713123471
  6.0129527757995156 32.7904619203562149 36.1546002713123471
 16.1670061536383329 12.4823551646785660 36.1546002713123471
 16.1670061536383400 22.6364085425173869 36.1546002713123471
 16.1670061536383436 32.7904619203562220 36.1546002713123471
 26.3210595314771574 12.4823551646785695 36.1546002713123471
 -4.1411006020393071 12.4823551646785695 36.1546002713123471
 -4.1411006020393124 22.6364085425173940 36.1546002713123471
  7.9166472213148440  3.6311972704348530 35.2002128558833576
  7.9166472213148431 13.7852506482736779 35.2002128558833576
  7.9166472213148458 23.9393040261125023 35.2002128558833576
  7.9166472213148467 34.0933574039513161 35.2002128558833576
 18.0707005991536747 13.7852506482736814 35.2002128558833576
 18.0707005991536747 23.9393040261124987 35.2002128558833576
 18.0707005991536711 34.0933574039513161 35.2002128558833576
 28.2247539769924884 13.7852506482736779 35.2002128558833576
 -2.2374061565239782 13.7852506482736796 35.2002128558833576
 -2.2374061565239813 23.9393040261124987 35.2002128558833576
 -1.2228952749340127 32.5999956132109503 35.1314789156789615
  8.9311581029048099 12.2918888575332979 35.1314789156789615
  8.9311581029048117 22.4459422353721223 35.1314789156789615
  8.9311581029048099 32.5999956132109361 35.1314789156789615
 19.0852114807436308 12.2918888575332943 35.1314789156789615
 19.0852114807436379 22.4459422353721259 35.1314789156789615
 19.0852114807436344 32.5999956132109361 35.1314789156789615
 29.2392648585824553 12.2918888575332979 35.1314789156789615
 -1.2228952749340141 12.2918888575332996 35.1314789156789615
 -1.2228952749340092 22.4459422353721187 35.1314789156789615
 -2.8550910275801700 31.5715295302462238 33.5308677901059085
  7.2989623502586554 11.2634227745685713 33.5308677901059085
  7.2989623502586545 21.4174761524073993 33.5308677901059085
  7.2989623502586518 31.5715295302462202 33.5308677901059085
 17.4530157280974763 11.2634227745685713 33.5308677901059085
 17.4530157280974727 21.4174761524073993 33.5308677901059085
 17.4530157280974763 31.5715295302462238 33.5308677901059085
 27.6070691059363007 11.2634227745685767 33.5308677901059085
 -2.8550910275801700 11.2634227745685767 33.5308677901059085
 -2.8550910275801673 21.4174761524073993 33.5308677901059085
  6.2772130238349497  2.5955507923264505 33.6140873260427995
  6.2772130238349515 12.7496041701652754 33.6140873260427995
  6.2772130238349533 22.9036575480041016 33.6140873260427995
  6.2772130238349479 33.0577109258429118 33.6140873260427995
 16.4312664016737706 12.7496041701652754 33.6140873260427995
 16.4312664016737742 22.9036575480040945 33.6140873260427995
 16.4312664016737742 33.0577109258429118 33.6140873260427995
 26.5853197795125951 12.7496041701652789 33.6140873260427995
 -3.8768403540038707 12.7496041701652771 33.6140873260427995
 -3.8768403540038707 22.9036575480040909 33.6140873260427995
 -0.9448159750702168 32.9359967268773062 32.6331969288767993
  9.2092374027686077 12.6278899711996573 32.6331969288767993
  9.2092374027686077 22.7819433490384853 32.6331969288767993
  9.2092374027686077 32.9359967268773062 32.6331969288767993
 19.3632907806074286 12.6278899711996644 32.6331969288767993
 19.3632907806074357 22.7819433490384853 32.6331969288767993
 19.3632907806074392 32.9359967268772991 32.6331969288767993
 29.5173441584462566 12.6278899711996608 32.6331969288767993
 -0.9448159750702141 12.6278899711996573 32.6331969288767993
 -0.9448159750702168 22.7819433490384782 32.6331969288767993
  8.1879458487224461  3.9576891845239501 32.7137465740011208
  8.1879458487224461 14.1117425623627710 32.7137465740011208
  8.1879458487224479 24.2657959402015990 32.7137465740011208
  8.1879458487224497 34.4198493180404128 32.7137465740011208
 18.3419992265612706 14.1117425623627710 32.7137465740011208
 18.3419992265612706 24.2657959402016026 32.7137465740011208
 18.3419992265612777 34.4198493180404199 32.7137465740011208
 28.4960526044000915 14.1117425623627746 32.7137465740011208
 -1.9661075291163765 14.1117425623627799 32.7137465740011208
 -1.9661075291163801 24.2657959402015990 32.7137465740011208
  6.6432590507744225  2.9224855301619153 31.1709995206087314
  6.6432590507744234 13.0765389080007388 31.1709995206087314
  6.6432590507744234 23.2305922858395597 31.1709995206087314
  6.6432590507744287 33.3846456636783770 31.1709995206087314
 16.7973124286132425 13.0765389080007388 31.1709995206087314
 16.7973124286132460 23.2305922858395597 31.1709995206087314
 16.7973124286132460 33.3846456636783770 31.1709995206087314
 26.9513658064520669 13.0765389080007424 31.1709995206087314
 -3.5107943270643975 13.0765389080007406 31.1709995206087314
 -3.5107943270643975 23.2305922858395562 31.1709995206087314
  8.2135864101804721  2.9994441618327774 30.5205901650752409
  8.2135864101804739 13.1534975396716014 30.5205901650752409
  8.2135864101804721 23.3075509175104294 30.5205901650752409
  8.2135864101804756 33.4616042953492538 30.5205901650752409
 18.3676397880192965 13.1534975396716014 30.5205901650752409
 18.3676397880192965 23.3075509175104223 30.5205901650752409
 18.3676397880192965 33.4616042953492396 30.5205901650752409
 28.5216931658581281 13.1534975396716014 30.5205901650752409
 -1.9404669676583479 13.1534975396716050 30.5205901650752409
 -1.9404669676583506 23.3075509175104258 30.5205901650752409
 -2.5409880266601510 31.9765869462342138 31.0941193415438732
  7.6130653511786672 11.6684801905565685 31.0941193415438732
  7.6130653511786681 21.8225335683953858 31.0941193415438732
  7.6130653511786690 31.9765869462342067 31.0941193415438732
 17.7671187290174935 11.6684801905565667 31.0941193415438732
 17.7671187290174935 21.8225335683953858 31.0941193415438732
 17.7671187290174935 31.9765869462342067 31.0941193415438732
 27.9211721068563179 11.6684801905565685 31.0941193415438732
 -2.5409880266601550 11.6684801905565649 31.0941193415438732
 -2.5409880266601510 21.8225335683953929 31.0941193415438732
  0.5077026688919408  3.5539186822435882 17.0075901650752428
  8.6309453711629995  9.6463507089468816 17.0075901650752428
  2.5385133444597079 17.7695934112179401 17.0075901650752428
 -3.5539186822435873 25.8928361134890039 17.0075901650752428
 16.7541880734340580 15.7387827356501759 17.0075901650752428
 10.6617560467307637 23.8620254379212398 17.0075901650752428
  4.5693240200274765 31.9852681401922965 17.0075901650752428
 24.8774307757051218 21.8312147623534756 17.0075901650752428
 18.7849987490018293 29.9544574646245394 17.0075901650752428
 22.8466201001373506  7.6155400333791174 17.0075901650752428
  1.5231080066758245 10.6617560467307673 17.0075901650752428
  9.6463507089468834 16.7541880734340616 17.0075901650752428
  3.5539186822435909 24.8774307757051183 17.0075901650752428
  7.6155400333791192  2.5385133444597061 17.0075901650752428
 17.7695934112179401 22.8466201001373506 17.0075901650752428
 11.6771613845146458 30.9698628024084144 17.0075901650752428
 15.7387827356501759  8.6309453711629978 17.0075901650752428
 -4.5693240200274676 18.7849987490018258 17.0075901650752428
 19.8004040867857043 37.0622948291117069 17.0075901650752428
 23.8620254379212362 14.7233773978662938 17.0075901650752428
  0.5077026688919408  3.5539186822435882 13.4175901650752429
  8.6309453711629995  9.6463507089468816 13.4175901650752429
  2.5385133444597079 17.7695934112179401 13.4175901650752429
 -3.5539186822435873 25.8928361134890039 13.4175901650752429
 16.7541880734340580 15.7387827356501759 13.4175901650752429
 10.6617560467307637 23.8620254379212398 13.4175901650752429
  4.5693240200274765 31.9852681401922965 13.4175901650752429
 24.8774307757051218 21.8312147623534756 13.4175901650752429
 18.7849987490018293 29.9544574646245394 13.4175901650752429
 22.8466201001373506  7.6155400333791174 13.4175901650752429
  1.5231080066758245 10.6617560467307673 13.4175901650752429
  9.6463507089468834 16.7541880734340616 13.4175901650752429
  3.5539186822435909 24.8774307757051183 13.4175901650752429
  7.6155400333791192  2.5385133444597061 13.4175901650752429
 17.7695934112179401 22.8466201001373506 13.4175901650752429
 11.6771613845146458 30.9698628024084144 13.4175901650752429
 15.7387827356501759  8.6309453711629978 13.4175901650752429
 -4.5693240200274676 18.7849987490018258 13.4175901650752429
 19.8004040867857043 37.0622948291117069 13.4175901650752429
 23.8620254379212362 14.7233773978662938 13.4175901650752429
  0.0000000000000000  0.0000000000000000 17.0075901650752428
  8.1232427022710603  6.0924320267032943 17.0075901650752428
  2.0308106755677633 14.2156747289743528 17.0075901650752428
 -4.0616213511355301 22.3389174312454131 17.0075901650752428
 16.2464854045421205 12.1848640534065886 17.0075901650752428
 10.1540533778388244 20.3081067556776453 17.0075901650752428
  4.0616213511355266 28.4313494579487056 17.0075901650752428
 24.3697281068131808 18.2772960801098847 17.0075901650752428
 18.2772960801098847 26.4005387823809450 17.0075901650752428
 12.1848640534065868 34.5237814846519981 17.0075901650752428
  4.0616213511355301  3.0462160133516472 17.0075901650752428
 12.1848640534065904  9.1386480400549441 17.0075901650752428
  6.0924320267032996 17.2618907423259991 17.0075901650752428
  0.0000000000000044 25.3851334445970629 17.0075901650752428
 20.3081067556776453 15.2310800667582349 17.0075901650752428
 14.2156747289743528 23.3543227690292987 17.0075901650752428
  8.1232427022710603 31.4775654713003519 17.0075901650752428
 -2.0308106755677628 11.1694587156227101 17.0075901650752428
 22.3389174312454131 29.4467547957325912 17.0075901650752428
 16.2464854045421170 37.5699974980036515 17.0075901650752428
 27.4159441201648235 14.2156747289743528 17.0075901650752428
  5.0770266889194122 10.1540533778388227 17.0075901650752428
 -1.0154053377838821 18.2772960801098812 17.0075901650752428
 -7.1078373644871764 26.4005387823809414 17.0075901650752428
 13.2002693911904689 16.2464854045421205 17.0075901650752428
  7.1078373644871764 24.3697281068131737 17.0075901650752428
  1.0154053377838821 32.4929708090842340 17.0075901650752428
 21.3235120934615310 22.3389174312454131 17.0075901650752428
 15.2310800667582384 30.4621601335164733 17.0075901650752428
 19.2927014178937668  8.1232427022710549 17.0075901650752428
  1.0154053377838816  7.1078373644871764 17.0075901650752428
  9.1386480400549459 13.2002693911904725 17.0075901650752428
  3.0462160133516489 21.3235120934615345 17.0075901650752428
 -3.0462160133516436 29.4467547957325948 17.0075901650752428
 17.2618907423259991 19.2927014178937632 17.0075901650752428
 11.1694587156227101 27.4159441201648235 17.0075901650752428
 15.2310800667582384  5.0770266889194122 17.0075901650752428
 -5.0770266889194113 15.2310800667582384 17.0075901650752428
 19.2927014178937668 33.5083761468681232 17.0075901650752428
 23.3543227690293023 11.1694587156227101 17.0075901650752428
  0.5077026688919408  3.5539186822435882 20.5975901650752462
  8.6309453711629995  9.6463507089468816 20.5975901650752462
  2.5385133444597079 17.7695934112179401 20.5975901650752462
 -3.5539186822435873 25.8928361134890039 20.5975901650752462
 16.7541880734340580 15.7387827356501759 20.5975901650752462
 10.6617560467307637 23.8620254379212398 20.5975901650752462
  4.5693240200274765 31.9852681401922965 20.5975901650752462
 24.8774307757051218 21.8312147623534756 20.5975901650752462
 18.7849987490018293 29.9544574646245394 20.5975901650752462
 22.8466201001373506  7.6155400333791174 20.5975901650752462
  1.5231080066758245 10.6617560467307673 20.5975901650752462
  9.6463507089468834 16.7541880734340616 20.5975901650752462
  3.5539186822435909 24.8774307757051183 20.5975901650752462
  7.6155400333791192  2.5385133444597061 20.5975901650752462
 17.7695934112179401 22.8466201001373506 20.5975901650752462
 11.6771613845146458 30.9698628024084144 20.5975901650752462
 15.7387827356501759  8.6309453711629978 20.5975901650752462
 -4.5693240200274676 18.7849987490018258 20.5975901650752462
 19.8004040867857043 37.0622948291117069 20.5975901650752462
 23.8620254379212362 14.7233773978662938 20.5975901650752462
 -1.9739826422208357  6.8762370636773449  7.0035493961519046
  6.1492600600502243 12.9686690903806383  7.0035493961519046
  0.0568280333469318 21.0919117926517004  7.0035493961519046
 -6.0356039933563626 29.2151544949227606  7.0035493961519046
 14.2725027623212881 19.0611011170839326  7.0035493961519046
  8.1800707356179920 27.1843438193549929  7.0035493961519046
 12.2416920867535204  4.8454263881095780  7.0035493961519046
 22.3957454645923413 25.1535331437872252  7.0035493961519046
 16.3033134378890452 33.2767758460582783  7.0035493961519046
 20.3649347890245771 10.9378584148128741  7.0035493961519046
 27.6731503147709219 18.1638758275116956  7.4450047113663498
  5.3342328835255106 14.1022544763761637  7.4450047113663498
 -0.7581991431777846 22.2254971786472240  7.4450047113663498
 -6.8506311698810771 30.3487398809182842  7.4450047113663498
 13.4574755857965691 20.1946865030794562  7.4450047113663498
  7.3650435590932721 28.3179292053505200  7.4450047113663498
 11.4266649102287996  5.9790117741051034  7.4450047113663498
 21.5807182880676258 26.2871185297827559  7.4450047113663498
 15.4882862613643333 34.4103612320538161  7.4450047113663498
 19.5499076124998652 12.0714438008083942  7.4450047113663498
 27.0736298026287479 17.9378248381405712  8.8430320128339819
  4.7347123713833312 13.8762034870050392  8.8430320128339819
 -1.3577196553199631 21.9994461892761031  8.8430320128339819
 -7.4501516820232609 30.1226888915471669  8.8430320128339819
 12.8579550736543897 19.9686355137083353  8.8430320128339819
  6.7655230469510972 28.0918782159793992  8.8430320128339819
 10.8271443980866255  5.7529607847339799  8.8430320128339819
 20.9811977759254447 26.0610675404116279  8.8430320128339819
 14.8887657492221521 34.1843102426826917  8.8430320128339819
 18.9503871003576840 11.8453928114372751  8.8430320128339819
 -2.3235216909320138  7.7892865415069386  9.9491485172145229
  5.7997210113390487 13.8817185682102355  9.9491485172145229
 -0.2927110153642447 22.0049612704812922  9.9491485172145229
 -6.3851430420675399 30.1282039727523525  9.9491485172145229
 13.9229637136101090 19.9741505949135281  9.9491485172145229
  7.8305316869068093 28.0973932971845812  9.9491485172145229
 11.8921530380423413  5.7584758659391735  9.9491485172145229
 22.0462064158811586 26.0665826216168242  9.9491485172145229
 15.9537743891778678 34.1898253238878809  9.9491485172145229
 20.0153957403134015 11.8509078926424714  9.9491485172145229
 27.4901580319238619 17.8533240631532806 11.3357882634943898
  5.1512406006784506 13.7917027120177504 11.3357882634943898
 -0.9411914260248428 21.9149454142888160 11.3357882634943898
 -7.0336234527281380 30.0381881165598799 11.3357882634943898
 13.2744833029495091 19.8841347387210448 11.3357882634943898
  7.1820512762462068 28.0073774409921121 11.3357882634943898
 11.2436726273817449  5.6684600097466964 11.3357882634943898
 21.3977260052205693 25.9765667654243373 11.3357882634943898
 15.3052939785172732 34.0998094676953940 11.3357882634943898
 19.3669153296528016 11.7608920364499880 11.3357882634943898
 -1.9095463242943911  7.6928272299415452 12.4429834756677646
  6.2136963779766674 13.7852592566448369 12.4429834756677646
  0.1212643512733731 21.9085019589158989 12.4429834756677646
 -5.9711676754299212 30.0317446611869556 12.4429834756677646
 14.3369390802477294 19.8776912833481347 12.4429834756677646
  8.2445070535444351 28.0009339856191914 12.4429834756677646
 12.3061284046799617  5.6620165543737766 12.4429834756677646
 22.4601817825187808 25.9701233100514273 12.4429834756677646
 16.3677497558154954 34.0933660123224840 12.4429834756677646
 20.4293711069510238 11.7544485810770745 12.4429834756677646
 -2.5314875445558607  7.6082837879128000 13.7639818234497522
  5.5917551577152000 13.7007158146160926 13.7639818234497522
 -0.5006768689880943 21.8239585168871493 13.7639818234497522
 -6.5931088956913895 29.9472012191582131 13.7639818234497522
 13.7149978599862585 19.7931478413193886 13.7639818234497522
  7.6225658332829571 27.9163905435904525 13.7639818234497522
 11.6841871844184890  5.5774731123450350 13.7639818234497522
 21.8382405622573117 25.8855798680226847 13.7639818234497522
 15.7458085355540227 34.0088225702937450 13.7639818234497522
 19.8074298866895511 11.6699051390483266 13.7639818234497522
 -1.7153483471727529  7.0149936354668911  6.0000000000000000
  6.4078943550983087 13.1074256621701828  6.0000000000000000
  0.3154623283950144 21.2306683644412431  6.0000000000000000
 -5.7769696983082817 29.3539110667123069  6.0000000000000000
 14.5311370573693637 19.1998576888734753  6.0000000000000000
  8.4387050306660676 27.3231003911445427  6.0000000000000000
 12.5003263818015995  4.9841829598991207  6.0000000000000000
 22.6543797596404275 25.2922897155767785  6.0000000000000000
 16.5619477329371279 33.4155324178478210  6.0000000000000000
 20.6235690840726598 11.0766149866024204  6.0000000000000000
 -1.0941165154827752  6.8201207295581598  7.5644529715017619
  7.0291261867882842 12.9125527562614550  7.5644529715017619
  0.9366941600849907 21.0357954585325118  7.5644529715017619
 -5.1557378666183036 29.1590381608035720  7.5644529715017619
 15.1523688890593409 19.0049847829647476  7.5644529715017619
  9.0599368623560501 27.1282274852358114  7.5644529715017619
 13.1215582134915785  4.7893100539903974  7.5644529715017619
 23.2756115913304029 25.0974168096680401  7.5644529715017619
 17.1831795646271139 33.2206595119391039  7.5644529715017619
 21.2448009157626387 10.8817420806936873  7.5644529715017619
 27.9501827037062753 16.1376824547125608  7.0907652569767148
  5.6112652724608623 12.0760611035770307  7.0907652569767148
 -0.4811667542424320 20.1993038058480892  7.0907652569767148
 -6.5735987809457290 28.3225465081191459  7.0907652569767148
 13.7345079747319225 18.1684931302803285  7.0907652569767148
  7.6420759480286264 26.2917358325513817  7.0907652569767148
 11.7036972991641548  3.9528184013059704  7.0907652569767148
 21.8577506770029792 24.2609251569836211  7.0907652569767148
 15.7653186502996832 32.3841678592546813  7.0907652569767148
 19.8269400014352186 10.0452504280092594  7.0907652569767148
 -2.1771690112990325  8.9391501033205198  7.4388205473381435
  5.9460736909720255 15.0315821300238142  7.4388205473381435
 -0.1463583357312688 23.1548248322948744  7.4388205473381435
 -6.2387903624345604 31.2780675345659276  7.4388205473381435
 14.0693163932430885 21.1240141567271102  7.4388205473381435
  7.9768843665397950 29.2472568589981705  7.4388205473381435
 12.0385057176753225  6.9083394277527566  7.4388205473381435
 22.1925590955141487 27.2164461834304063  7.4388205473381435
 16.1001270688108562 35.3396888857014702  7.4388205473381435
 20.1617484199463775 13.0007714544560464  7.4388205473381435
 26.8370674849458126 18.3098717619618085  6.7255680102572803
  4.4981500537003960 14.2482504108262731  6.7255680102572803
 -1.5942819730028974 22.3714931130973369  6.7255680102572803
 -7.6867139997061900 30.4947358153683936  6.7255680102572803
 12.6213927559714563 20.3406824375295692  6.7255680102572803
  6.5289607292681593 28.4639251398006294  6.7255680102572803
 10.5905820804036921  6.1250077085552164  6.7255680102572803
 20.7446354582425130 26.4331144642328582  6.7255680102572803
 14.6522034315392133 34.5563571665039220  6.7255680102572803
 18.7138247826747524 12.2174397352585071  6.7255680102572803
 26.3449605573209134 18.7547955472246457  9.0391726627905005
  4.0060431260754976 14.6931741960891138  9.0391726627905005
 -2.0863889006277994 22.8164168983601812  9.0391726627905005
 -8.1788209273310937 30.9396596006312379  9.0391726627905005
 12.1292858283465534 20.7856062227924099  9.0391726627905005
  6.0368538016432627 28.9088489250634773  9.0391726627905005
 10.0984751527787928  6.5699314938180562  9.0391726627905005
 20.2525285306176102 26.8780382494957024  9.0391726627905005
 14.1600965039143158 35.0012809517667662  9.0391726627905005
 18.2217178550498460 12.6623635205213549  9.0391726627905005
 26.5154500484211084 16.9762103027661482  8.8605800588381403
  4.1765326171756909 12.9145889516306180  8.8605800588381403
 -1.9158994095276043 21.0378316539016801  8.8605800588381403
 -8.0083314362308986 29.1610743561727404  8.8605800588381403
 12.2997753194467521 19.0070209783339159  8.8605800588381403
  6.2073432927434569 27.1302636806049691  8.8605800588381403
 10.2689646438789843  4.7913462493595649  8.8605800588381403
 20.4230180217178159 25.0994530050372084  8.8605800588381403
 14.3305859950145216 33.2226957073082758  8.8605800588381403
 18.3922073461500482 10.8837782760628592  8.8605800588381403
 -1.6420172385260350  6.9220572053604368  9.8149674742671262
  6.4812254637450248 13.0144892320637329  9.8149674742671262
  0.3887934370417296 21.1377319343347949  9.8149674742671262
 -5.7036385896615638 29.2609746366058481  9.8149674742671262
 14.6044681660160833 19.1069212587670272  9.8149674742671262
  8.5120361393127855 27.2301639610380875  9.8149674742671262
 12.5736574904483138  4.8912465297926726  9.8149674742671262
 22.7277108682871472 25.1993532854703233  9.8149674742671262
 16.6352788415838546 33.3225959877413871  9.8149674742671262
 20.6969001927193794 10.9836785564959651  9.8149674742671262
 -1.7264256076982909  8.7254531669067195  9.8837014144715329
  6.3968170945727660 14.8178851936100120  9.8837014144715329
  0.3043850678694708 22.9411278958810776  9.8837014144715329
 -5.7880469588338208 31.0643705981521343  9.8837014144715329
 14.5200597968438316 20.9103172203133099  9.8837014144715329
  8.4276277701405355 29.0335599225843737  9.8837014144715329
 12.4892491212760621  6.6946424913389571  9.8837014144715329
 22.6433024991148848 27.0027492470166095  9.8837014144715329
 16.5508704724115923 35.1259919492876662  9.8837014144715329
 20.6124918235471206 12.7870745180422567  9.8837014144715329
 26.8128982739224178 18.7229619595296271 11.4843125400445807
  4.4739808426770082 14.6613406083940987 11.4843125400445807
 -1.6184511840262861 22.7845833106651554 11.4843125400445807
 -7.7108832107295795 30.9078260129362228 11.4843125400445807
 12.5972235449480721 20.7537726350973948 11.4843125400445807
  6.5047915182447724 28.8770153373684551 11.4843125400445807
 10.5664128693803043  6.5380979061230438 11.4843125400445807
 20.7204662472191181 26.8462046618006944 11.4843125400445807
 14.6280342205158309 34.9694473640717547 11.4843125400445807
 18.6896555716513610 12.6305299328263327 11.4843125400445807
 26.8872076501414732 16.9209672471980497 11.4010930041076843
  4.5482902188960646 12.8593458960625160 11.4010930041076843
 -1.5441418078072306 20.9825885983335780 11.4010930041076843
 -7.6365738345105241 29.1058313006046383 11.4010930041076843
 12.6715329211671275 18.9517779227658139 11.4010930041076843
  6.5791008944638216 27.0750206250368777 11.4010930041076843
 10.6407222455993562  4.7361031937914548 11.4010930041076843
 20.7947756234381806 25.0442099494691064 11.4010930041076843
 14.7023435967348881 33.1674526517401702 11.4010930041076843
 18.7639649478704200 10.8285352204947554 11.4010930041076843
 -1.3023614996074355  8.6234998558919074 12.3819834012736898
  6.8208812026636227 14.7159318825952035 12.3819834012736898
  0.7284491759603293 22.8391745848662602 12.3819834012736898
 -5.3639828507429623 30.9624172871373169 12.3819834012736898
 14.9441239049346812 20.8083639092984960 12.3819834012736898
  8.8516918782313887 28.9316066115695563 12.3819834012736898
 12.9133132293669117  6.5926891803241432 12.3819834012736898
 23.0673666072057451 26.9007959360017921 12.3819834012736898
 16.9749345805024561 35.0240386382728488 12.3819834012736898
 21.0365559316379738 12.6851212070274357 12.3819834012736898
 -1.2290831881464965  6.8236428505337177 12.3014337561493683
  6.8941595141245644 12.9160748772370138 12.3014337561493683
  0.8017274874212665 21.0393175795080722 12.3014337561493683
 -5.2907045392820251 29.1625602817791290 12.3014337561493683
 15.0174022163956202 19.0085069039403010 12.3014337561493683
  8.9249701896923241 27.1317496062113719 12.3014337561493683
 12.9865915408278561  4.7928321749659553 12.3014337561493683
 23.1406449186666805 25.1009389306436006 12.3014337561493683
 17.0482128919633880 33.2241816329146573 12.3014337561493683
 21.1098342430989128 10.8852642016692531 12.3014337561493683
 27.3762053143943369 16.8790470730933642 13.8441808095417560
  5.0372878831489256 12.8174257219578287 13.8441808095417560
 -1.0551441435543678 20.9406684242288854 13.8441808095417560
 -7.1475761702576648 29.0639111264999457 13.8441808095417560
 13.1605305854199823 18.9098577486611212 13.8441808095417560
  7.0680985587166880 27.0331004509321815 13.8441808095417560
 11.1297199098522164  4.6941830196867746 13.8441808095417560
 21.2837732876910373 25.0022897753644138 13.8441808095417560
 15.1913412609877465 33.1255324776354811 13.8441808095417560
 19.2529626121232766 10.7866150463900627 13.8441808095417560
 -1.7835177525947798  7.6056232055614714 14.4945901650752429
  6.3397249496762793 13.6980552322647693 14.4945901650752429
  0.2472929229729859 21.8212979345358313 14.4945901650752429
 -5.8451391037303075 29.9445406368068880 14.4945901650752429
 14.4629676519473414 19.7904872589680636 14.4945901650752429
  8.3705356252440382 27.9137299612391274 14.4945901650752429
 12.4321569763795718  5.5748125299937099 14.4945901650752429
 22.5862103542184052 25.8829192856713632 14.4945901650752429
 16.4937783275151020 34.0061619879424271 14.4945901650752429
 20.5553996786506339 11.6672445566970104 14.4945901650752429
 27.3072151242512255 18.5873778272912489 13.9210609886066159
  4.9682976930058134 14.5257564761557134 13.9210609886066159
 -1.1241343336974809 22.6489991784267772 13.9210609886066159
 -7.2165663604007726 30.7722418806978339 13.9210609886066159
 13.0915403952768763 20.6181885028590060 13.9210609886066159
  6.9991083685735793 28.7414312051300698 13.9210609886066159
 11.0607297197091068  6.4025137738846549 13.9210609886066159
 21.2147830975479366 26.7106205295623056 13.9210609886066159
 15.1223510708446369 34.8338632318333694 13.9210609886066159
 19.1839724219801724 12.4949458005879457 13.9210609886066159
  5.1338547222663422  5.8608317258934637  7.0035493961519046
 13.2570974245374007 11.9532637525967562  7.0035493961519046
  7.1646653978341082 20.0765064548678147  7.0035493961519046
  1.0722333711308121 28.1997491571388750  7.0035493961519046
 21.3803401268084627 18.0456957793000470  7.0035493961519046
 15.2879081001051702 26.1689384815711108  7.0035493961519046
  9.1954760734018670 34.2921811838421746  7.0035493961519046
 -0.9585773044369530 13.9840744281645186  7.0035493961519046
 -7.0510093311402517 22.1073171304355824  7.0035493961519046
 27.4727721535117517  9.9224530770289938  7.0035493961519046
  4.3188275457416267  6.9944171118889882  7.4450047113663498
 12.4420702480126888 13.0868491385922816  7.4450047113663498
  6.3496382213093936 21.2100918408633454  7.4450047113663498
  0.2572061946061002 29.3333345431343986  7.4450047113663498
 20.5653129502837508 19.1792811652955812  7.4450047113663498
 14.4728809235804547 27.3025238675666415  7.4450047113663498
  8.3804488968771587 35.4257665698377053  7.4450047113663498
 -1.7736044809616751 15.1176598141600458  7.4450047113663498
 22.5961236258515044 33.3949558942699269  7.4450047113663498
 26.6577449769870363 11.0560384630245139  7.4450047113663498
  3.7193070335994500  6.7683661225178646  8.8430320128339819
 11.8425497358705094 12.8607981492211589  8.8430320128339819
  5.7501177091672124 20.9840408514922210  8.8430320128339819
 -0.3423143175360810 29.1072835537632812  8.8430320128339819
 19.9657924381415697 18.9532301759244532  8.8430320128339819
 13.8733604114382771 27.0764728781955171  8.8430320128339819
  7.7809283847349793 35.1997155804665809  8.8430320128339819
 -2.3731249931038394 14.8916088247889267  8.8430320128339819
 21.9966031137093303 33.1689049048988096  8.8430320128339819
 26.0582244648448622 10.8299874736534001  8.8430320128339819
  4.7843156735551631  6.7738812037230547  9.9491485172145229
 12.9075583758262233 12.8663132304263517  9.9491485172145229
  6.8151263491229308 20.9895559326974102  9.9491485172145229
  0.7226943224196383 29.1127986349684669  9.9491485172145229
 21.0308010780972836 18.9587452571296424  9.9491485172145229
 14.9383690513939911 27.0819879594007027  9.9491485172145229
  8.8459370246906968 35.2052306616717630  9.9491485172145229
 -1.3081163531481352 14.8971239059941141  9.9491485172145229
 -7.4005483798514256 23.0203666082651743  9.9491485172145229
 27.1232331048005761 10.8355025548585768  9.9491485172145229
  4.1358352628945685  6.6838653475305740 11.3357882634943898
 12.2590779651656270 12.7762973742338701 11.3357882634943898
  6.1666459384623327 20.8995400765049268 11.3357882634943898
  0.0742139117590330 29.0227827787759871 11.3357882634943898
 20.3823206674366872 18.8687294009371627 11.3357882634943898
 14.2898886407333947 26.9919721032082229 11.3357882634943898
  8.1974566140300986 35.1152148054792832 11.3357882634943898
 -1.9565967638087312 14.8071080498016325 11.3357882634943898
 22.4131313430044443 33.0844041299115190 11.3357882634943898
 26.4747526941399727 10.7454866986661024 11.3357882634943898
  5.1982910401927844  6.6774218921576631 12.4429834756677646
 13.3215337424638438 12.7698539188609530 12.4429834756677646
  7.2291017157605513 20.8930966211320133 12.4429834756677646
  1.1366696890572552 29.0163393234030735 12.4429834756677646
 21.4447764447349094 18.8622859455642491 12.4429834756677646
 15.3523444180316098 26.9855286478353165 12.4429834756677646
  9.2599123913283190 35.1087713501063661 12.4429834756677646
 -0.8941409865105063 14.8006645944287243 12.4429834756677646
 -6.9865730132138033 22.9239072966997810 12.4429834756677646
 27.5372084714382019 10.7390432432931906 12.4429834756677646
  4.5763498199313162  6.5928784501289170 13.7639818234497522
 12.6995925222023693 12.6853104768322069 13.7639818234497522
  6.6071604954990795 20.8085531791032743 13.7639818234497522
  0.5147284687957860 28.9317958813743275 13.7639818234497522
 20.8228352244734367 18.7777425035355066 13.7639818234497522
 14.7304031977701388 26.9009852058065704 13.7639818234497522
  8.6379711710668481 35.0242279080776271 13.7639818234497522
 -1.5160822067719821 14.7161211523999764 13.7639818234497522
 -7.6085142334752778 22.8393638546710314 13.7639818234497522
 26.9152672511767292 10.6544998012644498 13.7639818234497522
  5.3924890173144266  5.9995882976830082  6.0000000000000000
 13.5157317195854851 12.0920203243863007  6.0000000000000000
  7.4232996928821908 20.2152630266573574  6.0000000000000000
  1.3308676661788947 28.3385057289284177  6.0000000000000000
 21.6389744218565454 18.1844523510895897  6.0000000000000000
 15.5465423951532493 26.3076950533606535  6.0000000000000000
  9.4541103684499586 34.4309377556317173  6.0000000000000000
 -0.6999430093888632 14.1228309999540667  6.0000000000000000
 -6.7923750360921620 22.2460737022251251  6.0000000000000000
 27.7314064485598486 10.0612096488185365  6.0000000000000000
  6.0137208490044012  5.8047153917742769  7.5644529715017619
 14.1369635512754606 11.8971474184775694  7.5644529715017619
  8.0445315245721680 20.0203901207486261  7.5644529715017619
  1.9520994978688737 28.1436328230196935  7.5644529715017619
 22.2602062535465244 17.9895794451808655  7.5644529715017619
 16.1677742268432212 26.1128221474519364  7.5644529715017619
 10.0753422001399393 34.2360648497229931  7.5644529715017619
 -0.0787111776988896 13.9279580940453371  7.5644529715017619
 -6.1711432044021866 22.0512007963163974  7.5644529715017619
 28.3526382802498205  9.8663367429098106  7.5644529715017619
  4.5958599346769802  4.9682237390898525  7.0907652569767148
 12.7191026369480422 11.0606557657931468  7.0907652569767148
  6.6266706102447497 19.1838984680642071  7.0907652569767148
  0.5342385835414554 27.3071411703352709  7.0907652569767148
 20.8423453392190972 17.1530877924964358  7.0907652569767148
 14.7499133125158046 25.2763304947675032  7.0907652569767148
  8.6574812858125103 33.3995731970385634  7.0907652569767148
 -1.4965720920263093 13.0914664413609145  7.0907652569767148
 22.8731560147868613 31.3687625214707957  7.0907652569767148
 26.9347773659223932  9.0298450902253826  7.0907652569767148
  4.9306683531881443  7.9237447655366386  7.4388205473381435
 13.0539110554592082 14.0161767922399321  7.4388205473381435
  6.9614790287559112 22.1394194945109888  7.4388205473381435
  0.8690470020526178 30.2626621967820491  7.4388205473381435
 21.1771537577302631 20.1086088189432246  7.4388205473381435
 15.0847217310269635 28.2318515212142849  7.4388205473381435
  8.9922897043236727 36.3550942234853451  7.4388205473381435
 -1.1617636735151513 16.0469874678076962  7.4388205473381435
 -7.2541957002184425 24.1702301700787530  7.4388205473381435
 27.2695857844335521 11.9853661166721679  7.4388205473381435
  3.4827447159165157  7.1404130463390985  6.7255680102572803
 11.6059874181875724 13.2328450730423910  6.7255680102572803
  5.5135553914842799 21.3560877753134513  6.7255680102572803
 -0.5788766352190162 29.4793304775845115  6.7255680102572803
 19.7292301204586380 19.3252770997456835  6.7255680102572803
 13.6367980937553366 27.4485198020167402  6.7255680102572803
  7.5443660670520458 35.5717625042878041  6.7255680102572803
 -2.6096873107867782 15.2636557486101569  6.7255680102572803
 21.7600407960264022 33.5409518287200470  6.7255680102572803
 25.8216621471619341 11.2020343974746286  6.7255680102572803
  2.9906377882916111  7.5853368316019374  9.0391726627905005
 11.1138804905626749 13.6777688583052335  9.0391726627905005
  5.0214484638593788 21.8010115605762955  9.0391726627905005
 -1.0709835628439173 29.9242542628473558  9.0391726627905005
 19.2371231928337352 19.7702008850085278  9.0391726627905005
 13.1446911661304355 27.8934435872795916  9.0391726627905005
  7.0522591394271412 36.0166862895506412  9.0391726627905005
 -3.1017942384116881 15.7085795338729959  9.0391726627905005
 21.2679338684014922 33.9858756139828841  9.0391726627905005
 25.3295552195370206 11.6469581827374640  9.0391726627905005
  3.1611272793918088  5.8067515871434443  8.8605800588381403
 11.2843699816628682 11.8991836138467342  8.8605800588381403
  5.1919379549595721 20.0224263161177944  8.8605800588381403
 -0.9004940717437204 28.1456690183888547  8.8605800588381403
 19.4076126839339302 17.9916156405500338  8.8605800588381403
 13.3151806572306413 26.1148583428210941  8.8605800588381403
  7.2227486305273469 34.2381010450921508  8.8605800588381403
 -2.9313047473114935 13.9299942894144984  8.8605800588381403
 21.4384233595016873 32.2072903695243866  8.8605800588381403
 25.5000447106372263  9.8683729382789682  8.8605800588381403
  5.4658201259611428  5.9066518675765547  9.8149674742671262
 13.5890628282322048 11.9990838942798490  9.8149674742671262
  7.4966308015289078 20.1223265965509057  9.8149674742671262
  1.4041987748256126 28.2455692988219695  9.8149674742671262
 21.7123055305032651 18.0915159209831415  9.8149674742671262
 15.6198735037999654 26.2147586232541983  9.8149674742671262
  9.5274414770966693 34.3380013255252621  9.8149674742671262
 -0.6266119007421507 14.0298945698476150  9.8149674742671262
 -6.7190439274454468 22.1531372721186735  9.8149674742671262
 27.8047375572065540  9.9682732187120884  9.8149674742671262
  5.3814117567888848  7.7100478291228383  9.8837014144715329
 13.5046544590599407 13.8024798558261317  9.8837014144715329
  7.4122224323566481 21.9257225580971919  9.8837014144715329
  1.3197904056533538 30.0489652603682522  9.8837014144715329
 21.6278971613310063 19.8949118825294242  9.8837014144715329
 15.5354651346277102 28.0181545848004916  9.8837014144715329
  9.4430331079244212 36.1413972870715483  9.8837014144715329
 -0.7110202699144024 15.8332905313939012  9.8837014144715329
 -6.8034522966177002 23.9565332336649597  9.8837014144715329
 27.7203291880343023 11.7716691802583675  9.8837014144715329
  3.4585755048931239  7.5535032439069223 11.4843125400445807
 11.5818182071641864 13.6459352706102166 11.4843125400445807
  5.4893861804608886 21.7691779728812804 11.4843125400445807
 -0.6030458462424058 29.8924206751523442 11.4843125400445807
 19.7050609094352431 19.7383672973135091 11.4843125400445807
 13.6126288827319506 27.8616099995845801 11.4843125400445807
  7.5201968560286598 35.9848527018556368 11.4843125400445807
 -2.6338565218101735 15.6767459461779808 11.4843125400445807
 21.7358715850030002 33.9540420262878584 11.4843125400445807
 25.7974929361385321 11.6151245950424524 11.4843125400445807
  3.5328848811121825  5.7515085315753387 11.4010930041076843
 11.6561275833832436 11.8439405582786357 11.4010930041076843
  5.5636955566799502 19.9671832605496959 11.4010930041076843
 -0.5287364700233477 28.0904259628207562 11.4010930041076843
 19.7793702856543021 17.9363725849819247 11.4010930041076843
 13.6869382589510078 26.0596152872529956 11.4010930041076843
  7.5945062322477188 34.1828579895240452 11.4010930041076843
 -2.5595471455911118 13.8747512338463981 11.4010930041076843
 21.8101809612220663 32.1520473139562881 11.4010930041076843
 25.8718023123575946  9.8131298827108679 11.4010930041076843
  5.8054758648797407  7.6080945181080271 12.3819834012736898
 13.9287185671508027 13.7005265448113214 12.3819834012736898
  7.8362865404475048 21.8237692470823781 12.3819834012736898
  1.7438545137442123 29.9470119493534348 12.3819834012736898
 22.0519612694218665 19.7929585715146175 12.3819834012736898
 15.9595292427185669 27.9162012737856813 12.3819834012736898
  9.8670972160152797 36.0394439760567309 12.3819834012736898
 -0.2869561618235572 15.7313372203790838 12.3819834012736898
 -6.3793881885268524 23.8545799226501387 12.3819834012736898
 28.1443932961251555 11.6697158692435590 12.3819834012736898
  5.8787541763406814  5.8082375127498365 12.3014337561493683
 14.0019968786117381 11.9006695394531299 12.3014337561493683
  7.9095648519084465 20.0239122417241937 12.3014337561493683
  1.8171328252051548 28.1471549439952504 12.3014337561493683
 22.1252395808828020 17.9931015661564260 12.3014337561493683
 16.0328075541795059 26.1163442684274862 12.3014337561493683
  9.9403755274762116 34.2395869706985394 12.3014337561493683
 -0.2136778503626164 13.9314802150208958 12.3014337561493683
 -6.3061098770659081 22.0547229172919543 12.3014337561493683
 28.2176716075860909  9.8698588638853657 12.3014337561493683
  4.0218825453650409  5.7095883574706523 13.8441808095417560
 12.1451252476361020 11.8020203841739466 13.8441808095417560
  6.0526932209328068 19.9252630864450033 13.8441808095417560
 -0.0397388057704848 28.0485057887160600 13.8441808095417560
 20.2683679499071552 17.8944524108772356 13.8441808095417560
 14.1759359232038697 26.0176951131482994 13.8441808095417560
  8.0835038965005719 34.1409378154193561 13.8441808095417560
 -2.0705494813382477 13.8328310597417126 13.8441808095417560
 22.2991786254749336 32.1101271398515991 13.8441808095417560
 26.3607999766104584  9.7712097086061807 13.8441808095417560
  5.3243196118923981  6.5902178677775911 14.4945901650752429
 13.4475623141634575 12.6826498944808854 14.4945901650752429
  7.3551302874601605 20.8058925967519528 14.4945901650752429
  1.2626982607568689 28.9291352990230060 14.4945901650752429
 21.5708050164345160 18.7750819211841815 14.4945901650752429
 15.4783729897312234 26.8983246234552418 14.4945901650752429
  9.3859409630279309 35.0215673257262949 14.4945901650752429
 -0.7681124148108971 14.7134605700486514 14.4945901650752429
 -6.8605444415141950 22.8367032723197099 14.4945901650752429
 27.6632370431378121 10.6518392189131177 14.4945901650752429
  3.9528923552219348  7.4179191116685370 13.9210609886066159
 12.0761350574929907 13.5103511383718278 13.9210609886066159
  5.9837030307897017 21.6335938406428951 13.9210609886066159
 -0.1087289959135997 29.7568365429139519 13.9210609886066159
 20.1993777597640580 19.6027831650751239 13.9210609886066159
 14.1069457330607584 27.7260258673461912 13.9210609886066159
  8.0145137063574694 35.8492685696172373 13.9210609886066159
 -2.1395396714813670 15.5411618139395937 13.9210609886066159
 22.2301884353318115 33.8184578940494802 13.9210609886066159
 26.2918097864673435 11.4795404628040671 13.9210609886066159
 27.3719845347699504 18.5185477168837593 27.0116309339985818
  5.0330671035245373 14.4569263657482292 27.0116309339985818
 -1.0593649231787570 22.5801690680192841 27.0116309339985818
 -7.1517969498820522 30.7034117702903480 27.0116309339985818
 13.1563098057956012 20.5493583924515271 27.0116309339985818
  7.0638777790922997 28.6726010947225767 27.0116309339985818
 11.1254991302278299  6.3336836634771689 27.0116309339985818
 21.2795525080666543 26.6417904191548196 27.0116309339985818
 15.1871204813633547 34.7650331214258728 27.0116309339985818
 19.2487418324988901 12.4261156901804597 27.0116309339985818
 -2.2301412376177412  7.2646643415024572 26.5701756187841411
  5.8931014646533200 13.3570963682057506 26.5701756187841411
 -0.1993305620499743 21.4803390704768127 26.5701756187841411
 -6.2917625887532651 29.6035817727478658 26.5701756187841411
 14.0163441669243802 19.4495283949090414 26.5701756187841411
  7.9239121402210833 27.5727710971801052 26.5701756187841411
 11.9855334913566125  5.2338536659346904 26.5701756187841411
 22.1395868691954369 25.5419604216123410 26.5701756187841411
 16.0471548424921480 33.6652031238833942 26.5701756187841411
 20.1087761936276763 11.3262856926379794 26.5701756187841411
 27.8471442027026441 16.9064723047087071 25.1721483173165055
  5.5082267714572311 12.8448509535731752 25.1721483173165055
 -0.5842052552460615 20.9680936558442284 25.1721483173165055
 -6.6766372819493558 29.0913363581152886 25.1721483173165055
 13.6314694737282949 18.9372829802764677 25.1721483173165055
  7.5390374470249988 27.0605256825475280 25.1721483173165055
 11.6006587981605254  4.7216082513021176 25.1721483173165055
 21.7547121759993516 25.0297150069797567 25.1721483173165055
 15.6622801492960519 33.1529577092508276 25.1721483173165055
 19.7239015004315803 10.8140402780054057 25.1721483173165055
 -2.3115190336692444  7.7732829984899130 24.0660318129359609
  5.8117236686018190 13.8657150251932073 24.0660318129359609
 -0.2807083581014771 21.9889577274642676 24.0660318129359609
 -6.3731403848047714 30.1122004297353278 24.0660318129359609
 13.9349663708728784 19.9581470518965034 24.0660318129359609
  7.8425343441695778 28.0813897541675601 24.0660318129359609
 11.9041556953051089  5.7424723229221462 24.0660318129359609
 22.0582090731439280 26.0505790785997959 24.0660318129359609
 15.9657770464406372 34.1738217808708526 24.0660318129359609
 20.0273983975761709 11.8349043496254449 24.0660318129359609
 27.8826513629174819 17.3299996218284562 22.6793920666560993
  5.5437339316720671 13.2683782706929296 22.6793920666560993
 -0.5486980950312290 21.3916209729639917 22.6793920666560993
 -6.6411301217345198 29.5148636752350519 22.6793920666560993
 13.6669766339431291 19.3608102973962275 22.6793920666560993
  7.5745446072398241 27.4840529996672878 22.6793920666560993
 11.6361659583753578  5.1451355684218729 22.6793920666560993
 21.7902193362141858 25.4532423240995200 22.6793920666560993
 15.6977873095108915 33.5764850263705839 22.6793920666560993
 19.7594086606464145 11.2375675951251637 22.6793920666560993
 -2.2882068701134881  8.1977079577003380 21.5721968544827192
  5.8350358321575726 14.2901399844036341 21.5721968544827192
 -0.2573961945457199 22.4133826866746872 21.5721968544827192
 -6.3498282212490178 30.5366253889457511 21.5721968544827192
 13.9582785344286364 20.3825720111069231 21.5721968544827192
  7.8658465077253332 28.5058147133779833 21.5721968544827192
 11.9274678588608651  6.1668972821325720 21.5721968544827192
 22.0815212366996931 26.4750040378102227 21.5721968544827192
 15.9890892099964006 34.5982467400812865 21.5721968544827192
 20.0507105611319183 12.2593293088358699 21.5721968544827192
 27.9186480173821749 17.7783699278562040 20.2511985067007316
  5.5797305861367672 13.7167485767206756 20.2511985067007316
 -0.5127014405665280 21.8399912789917359 20.2511985067007316
 -6.6051334672698196 29.9632339812627890 20.2511985067007316
 13.7029732884078168 19.8091806034239681 20.2511985067007316
  7.6105412617045323 27.9324233056950249 20.2511985067007316
 11.6721626128400597  5.5935058744496091 20.2511985067007316
 21.8262159906788789 25.9016126301272607 20.2511985067007316
 15.7337839639755863 34.0248553323983174 20.2511985067007316
 19.7954053151111147 11.6859379011529043 20.2511985067007316
 27.5776084463013760 18.7279848000288460 28.0151803301504927
  5.2386910150559647 14.6663634488933141 28.0151803301504927
 -0.8537410116473323 22.7896061511643779 28.0151803301504927
 -6.9461730383506248 30.9128488534354346 28.0151803301504927
 13.3619337173270161 20.7587954755966067 28.0151803301504927
  7.2695016906237262 28.8820381778676669 28.0151803301504927
 11.3311230417592537  6.5431207466222521 28.0151803301504927
 21.4851764195980728 26.8512275022999027 28.0151803301504927
 15.3927443928947820 34.9744702045709630 28.0151803301504927
 19.4543657440303122 12.6355527733255428 28.0151803301504927
 -2.8976847640142860  9.2248783942668400 26.4507273586487344
  5.2255579382567738 15.3173104209701343 26.4507273586487344
 -0.8668740884465178 23.4405531232411946 26.4507273586487344
  3.1947472626890097  1.1016356919957839 26.4507273586487344
 13.3488006405278341 21.4097424476734268 26.4507273586487344
  7.2563686138245433 29.5329851499444906 26.4507273586487344
 11.3179899649600717  7.1940677186990749 26.4507273586487344
 21.4720433427989050 27.5021744743767229 26.4507273586487344
 15.3796113160956001 35.6254171766477796 26.4507273586487344
 19.4412326672311337 13.2864997454023737 26.4507273586487344
 26.3644423269134585 18.2520029571029809 26.9244150731737761
  4.0255248956680489 14.1903816059674490 26.9244150731737761
 -2.0669071310352480 22.3136243082385128 26.9244150731737761
 -8.1593391577385397 30.4368670105095624 26.9244150731737761
 12.1487675979391039 20.2828136326707380 26.9244150731737761
  6.0563355712358069 28.4060563349418089 26.9244150731737761
 10.1179569223713397  6.0671389036963870 26.9244150731737761
 20.2720103002101624 26.3752456593740412 26.9244150731737761
 14.1795782735068645 34.4984883616451015 26.9244150731737761
 18.2411996246423911 12.1595709303996813 26.9244150731737761
 -1.1666712640309711  7.5918197736297710 26.5763597828123466
  6.9565714382400881 13.6842518003330618 26.5763597828123466
  0.8641394115367946 21.8074945026041220 26.5763597828123466
 -5.2282926151664997 29.9307372048751823 26.5763597828123466
 15.0798141405111465 19.7766838270363579 26.5763597828123466
  8.9873821138078522 27.8999265293074181 26.5763597828123466
 13.0490034649433841  5.5610090980620051 26.5763597828123466
 23.2030568427822104 25.8691158537396575 26.5763597828123466
 17.1106248160789178 33.9923585560107142 26.5763597828123466
 21.1722461672144426 11.6534411247653011 26.5763597828123466
 28.1380718006198087 16.5751993410631471 27.2896123198932088
  5.7991543693743948 12.5135779899276152 27.2896123198932088
 -0.2932776573289013 20.6368206921986754 27.2896123198932088
 -6.3857096840321930 28.7600633944697286 27.2896123198932088
 13.9223970716454559 18.6060100166309041 27.2896123198932088
  7.8299650449421607 26.7292527189019680 27.2896123198932088
 11.8915863960776900  4.3903352876565522 27.2896123198932088
 22.0456397739165091 24.6984420433341967 27.2896123198932088
 15.9532077472132165 32.8216847456052534 27.2896123198932088
 20.0148290983487414 10.4827673143598474 27.2896123198932088
 28.4274086947371565 15.9781980306696383 24.9760076673599869
  6.0884912634917487 11.9165766795341082 24.9760076673599869
 -0.0039407632115465 20.0398193818051737 24.9760076673599869
 -6.0963727899148425 28.1630620840762411 24.9760076673599869
 14.2117339657628108 18.0090087062374060 24.9760076673599869
  8.1193019390595111 26.1322514085084698 24.9760076673599869
  2.0268699123562186 34.2554941107795230 24.9760076673599869
 22.3349766680338639 24.1014407329406950 24.9760076673599869
 16.2425446413305750 32.2246834352117588 24.9760076673599869
 20.3041659924661033  9.8857660039663493 24.9760076673599869
 26.7677039175650577 16.6398718105742098 25.1546002713123471
  4.4287864863196464 12.5782504594386761 25.1546002713123471
 -1.6636455403836479 20.7014931617097382 25.1546002713123471
 -7.7560775670869422 28.8247358639808020 25.1546002713123471
 12.5520291885907049 18.6706824861419705 25.1546002713123471
  6.4595971618874115 26.7939251884130378 25.1546002713123471
 10.5212185130229390  4.4550077571676248 25.1546002713123471
 20.6752718908617581 24.7631145128452701 25.1546002713123471
 14.5828398641584709 32.8863572151163339 25.1546002713123471
 18.6444612152940010 10.5474397838709155 25.1546002713123471
 27.5089221838202533 18.8244048647594937 24.2002128558833576
  5.1700047525748491 14.7627835136239653 24.2002128558833576
 -0.9224272741284443 22.8860262158950256 24.2002128558833576
 -7.0148593008317377 31.0092689181660823 24.2002128558833576
 13.2932474548459076 20.8552155403272579 24.2002128558833576
  7.2008154281426116 28.9784582425983217 24.2002128558833576
 11.2624367792781381  6.6395408113529051 24.2002128558833576
 21.4164901571169679 26.9476475670305611 24.2002128558833576
 15.3240581304136736 35.0708902693016142 24.2002128558833576
 19.3856794815492002 12.7319728380561976 24.2002128558833576
 -1.2456121699800118  8.0843685832823482 24.1314789156789615
  6.8776305322910458 14.1768006099856407 24.1314789156789615
  0.7851985055877524 22.3000433122567010 24.1314789156789615
 -5.3072335211155375 30.4232860145277542 24.1314789156789615
 15.0008732345621070 20.2692326366889368 24.1314789156789615
  8.9084412078588144 28.3924753389599971 24.1314789156789615
 12.9700625589943446  6.0535579077145849 24.1314789156789615
 23.1241159368331601 26.3616646633922258 24.1314789156789615
 17.0316839101298676 34.4849073656632896 24.1314789156789615
 21.0933052612653960 12.1459899344178783 24.1314789156789615
 -1.9342891223181018  6.2822782653228728 22.5308677901059085
  6.1889535799529583 12.3747102920261671 22.5308677901059085
  0.0965215532496657 20.4979529942972256 22.5308677901059085
 -5.9959104734536304 28.6211956965682859 22.5308677901059085
 14.3121962822240185 18.4671423187294650 22.5308677901059085
  8.2197642555207224 26.5903850210005217 22.5308677901059085
 12.2813856066562543  4.2514675897551077 22.5308677901059085
 22.4354389844950752 24.5595743454327504 22.5308677901059085
 16.3430069577917791 32.6828170477038213 22.5308677901059085
 20.4046283089273111 10.3438996164584047 22.5308677901059085
 26.8187627127013890 17.0122271637848321 22.6140873260427995
  4.4798452814559742 12.9506058126493055 22.6140873260427995
 -1.6125867452473228 21.0738485149203676 22.6140873260427995
 -7.7050187719506162 29.1970912171914243 22.6140873260427995
 12.6030879837270327 19.0430378393526034 22.6140873260427995
  6.5106559570237321 27.1662805416236601 22.6140873260427995
 10.5722773081592667  4.8273631103782426 22.6140873260427995
 20.7263306859980929 25.1354698660558888 22.6140873260427995
 14.6338986592948004 33.2587125683269562 22.6140873260427995
 18.6955200104303216 10.9197951370815396 22.6140873260427995
 -1.2247493982887923  8.5200170541337172 21.6331969288767993
  6.8984933039822680 14.6124490808370116 21.6331969288767993
  0.8060612772789773 22.7356917831080665 21.6331969288767993
 -5.2863707494243215 30.8589344853791303 21.6331969288767993
 15.0217360062533238 20.7048811075403059 21.6331969288767993
  8.9293039795500295 28.8281238098113697 21.6331969288767993
 12.9909253306855597  6.4892063785659513 21.6331969288767993
 23.1449787085243841 26.7973131342435948 21.6331969288767993
 17.0525466818210880 34.9205558365146516 21.6331969288767993
 21.1141680329566235 12.5816384052692420 21.6331969288767993
 -2.9320941962235891  9.0943241946365081 21.7137465740011208
  5.1911485060474716 15.1867562213398060 21.7137465740011208
 -0.9012835206558227 23.3099989236108662 21.7137465740011208
 -6.9937155473591179 31.4332416258819265 21.7137465740011208
 13.3143912083185292 21.2791882480430985 21.7137465740011208
  7.2219591816152349 29.4024309503141659 21.7137465740011208
 11.2835805327507650  7.0635135190687475 21.7137465740011208
 21.4376339105895894 27.3716202747463981 21.7137465740011208
 15.3452018838862969 35.4948629770174549 21.7137465740011208
 19.4068232350218253 13.1559455457720382 21.7137465740011208
 26.9154386915516923 17.4934025702168938 20.1709995206087314
  4.5765212603062739 13.4317812190813637 20.1709995206087314
 -1.5159107663970177 21.5550239213524222 20.1709995206087314
 -7.6083427931003138 29.6782666236234824 20.1709995206087314
 12.6997639625773395 19.5242132457846580 20.1709995206087314
  6.6073319358740372 27.6474559480557147 20.1709995206087314
 10.6689532870095629  5.3085385168103061 20.1709995206087314
 20.8230066648483891 25.6166452724879505 20.1709995206087314
 14.7305746381450966 33.7398879747590072 20.1709995206087314
 18.7921959892806321 11.4009705435135995 20.1709995206087314
 -2.3366347334424660  8.3431125133583866 19.5205901650752409
  5.7866079688285961 14.4355445400616809 19.5205901650752409
 -0.3058240578746974 22.5587872423327447 19.5205901650752409
 -6.3982560845779926 30.6820299446038049 19.5205901650752409
 13.9098506710996510 20.5279765667649770 19.5205901650752409
  7.8174186443963558 28.6512192690360337 19.5205901650752409
 11.8790399955318886  6.3123018377906241 19.5205901650752409
 22.0330933733707113 26.6204085934682766 19.5205901650752409
 15.9406613466674187 34.7436512957393333 19.5205901650752409
 20.0022826978029471 12.4047338644939167 19.5205901650752409
 -1.9260411711748866  6.7947859986652759 20.0941193415438732
  6.1972015310961703 12.8872180253685720 20.0941193415438732
  0.1047695043928760 21.0104607276396322 20.0941193415438732
 -5.9876625223104147 29.1337034299106890 20.0941193415438732
 14.3204442333672315 18.9796500520718610 20.0941193415438732
  8.2280122066639372 27.1028927543429248 20.0941193415438732
 12.2896335577994673  4.7639753230975135 20.0941193415438732
 22.4436869356382900 25.0720820787751606 20.0941193415438732
 16.3512549089349939 33.1953247810462173 20.0941193415438732
 20.4128762600705258 10.8564073498008025 20.0941193415438732
  4.0176617657406535  7.3490890012610501 27.0116309339985818
 12.1409044680117137 13.4415210279643453 27.0116309339985818
  6.0484724413084177 21.5647637302354021 27.0116309339985818
 -0.0439595853948784 29.6880064325064623 27.0116309339985818
 20.2641471702827651 19.5339530546676379 27.0116309339985818
 14.1717151435794726 27.6571957569386981 27.0116309339985818
  8.0792831168761801 35.7804384592097620 27.0116309339985818
 -2.0747702609626466 15.4723317035321060 27.0116309339985818
 22.2949578458505329 33.7496277836419978 27.0116309339985818
 26.3565791969860577 11.4107103523965812 27.0116309339985818
  4.8776961268694379  6.2492590037185725 26.5701756187841411
 13.0009388291404999 12.3416910304218668 26.5701756187841411
  6.9085068024372065 20.4649337326929235 26.5701756187841411
  0.8160747757339131 28.5881764349639873 26.5701756187841411
 21.1241815314115620 18.4341230571251629 26.5701756187841411
 15.0317495047082694 26.5573657593962267 26.5701756187841411
  8.9393174780049716 34.6806084616672834 26.5701756187841411
 -1.2147358998338573 14.3725017059896345 26.5701756187841411
 -7.3071679265371543 22.4957444082606912 26.5701756187841411
 27.2166135581148509 10.3108803548540973 26.5701756187841411
  4.4928214336733490  5.7370135890859979 25.1721483173165055
 12.6160641359444092 11.8294456157892931 25.1721483173165055
  6.5236321092411131 19.9526883180603534 25.1721483173165055
  0.4312000825378224 28.0759310203314101 25.1721483173165055
 20.7393068382154695 17.9218776424925856 25.1721483173165055
 14.6468748115121770 26.0451203447636495 25.1721483173165055
  8.5544427848088844 34.1683630470347026 25.1721483173165055
 -1.5996105930299453 13.8602562913570591 25.1721483173165055
 22.7701175137832408 32.1375523714669384 25.1721483173165055
 26.8317388649187620  9.7986349402215307 25.1721483173165055
  4.7963183308179325  6.7578776607060291 24.0660318129359609
 12.9195610330889927 12.8503096874093270 24.0660318129359609
  6.8271290063856949 20.9735523896803855 24.0660318129359609
  0.7346969796824041 29.0967950919514422 24.0660318129359609
 21.0428037353600530 18.9427417141126213 24.0660318129359609
 14.9503717086567587 27.0659844163836816 24.0660318129359609
  8.8579396819534644 35.1892271186547418 24.0660318129359609
 -1.2961136958853667 14.8811203629770894 24.0660318129359609
 -7.3885457225886650 23.0043630652481497 24.0660318129359609
 27.1352357620633420 10.8194990118415593 24.0660318129359609
  4.5283285938881832  6.1605409062057515 22.6793920666560993
 12.6515712961592417 12.2529729329090458 22.6793920666560993
  6.5591392694559492 20.3762156351801060 22.6793920666560993
  0.4667072427526531 28.4994583374511663 22.6793920666560993
 20.7748139984303108 18.3454049596123454 22.6793920666560993
 14.6823819717270148 26.4686476618834021 22.6793920666560993
  8.5899499450237222 34.5918903641544588 22.6793920666560993
 -1.5641034328151164 14.2837836084768099 22.6793920666560993
 22.8056246739980608 32.5610796885866947 22.6793920666560993
 26.8672460251335998 10.2221622573412763 22.6793920666560993
  4.8196304943736905  7.1823026199164559 21.5721968544827192
 12.9428731966447508 13.2747346466197520 21.5721968544827192
  6.8504411699414538 21.3979773488908052 21.5721968544827192
  0.7580091432381586 29.5212200511618690 21.5721968544827192
 21.0661158989158181 19.3671666733230481 21.5721968544827192
 14.9736838722125221 27.4904093755941048 21.5721968544827192
  8.8812518455092260 35.6136520778651686 21.5721968544827192
 -1.2728015323296056 15.3055453221875197 21.5721968544827192
 -7.3652335590328928 23.4287880244585764 21.5721968544827192
 27.1585479256191071 11.2439239710519878 21.5721968544827192
  4.5643252483528824  6.6089112122334956 20.2511985067007316
 12.6875679506239418 12.7013432389367900 20.2511985067007316
  6.5951359239206466 20.8245859412078502 20.2511985067007316
  0.5027038972173532 28.9478286434789069 20.2511985067007316
 20.8108106528949968 18.7937752656400860 20.2511985067007316
 14.7183786261917078 26.9170179679111392 20.2511985067007316
  8.6259465994884117 35.0402606701822066 20.2511985067007316
 -1.5281067783504168 14.7321539145045541 20.2511985067007316
 22.8416213284627609 33.0094499946144424 20.2511985067007316
 26.9032426795982929 10.6705325633690222 20.2511985067007316
  4.2232856772720808  7.5585260844061359 28.0151803301504927
 12.3465283795431411 13.6509581111094302 28.0151803301504927
  6.2540963528398477 21.7742008133804923 28.0151803301504927
  0.1616643261365489 29.8974435156515526 28.0151803301504927
 20.4697710818141978 19.7433901378127210 28.0151803301504927
 14.3773390551109053 27.8666328400837919 28.0151803301504927
  8.2849070284076056 35.9898755423548451 28.0151803301504927
 -1.8691463494312082 15.6817687866771962 28.0151803301504927
 22.5005817573819620 33.9590648667870809 28.0151803301504927
 26.5622031085174974 11.6201474355416661 28.0151803301504927
  4.2101526004728917  8.2094730564829561 26.4507273586487344
 12.3333953027439485 14.3019050831862522 26.4507273586487344
  6.2409632760406568 22.4251477854573125 26.4507273586487344
  0.1485312493373669 30.5483904877283727 26.4507273586487344
 20.4566380050150087 20.3943371098895483 26.4507273586487344
 14.3642059783117197 28.5175798121606050 26.4507273586487344
 18.4258273294472446  6.1786623809151893 26.4507273586487344
 -1.8822794262304012 16.3327157587540199 26.4507273586487344
 -7.9747114529336969 24.4559584610250766 26.4507273586487344
 26.5490700317183119 12.2710944076184898 26.4507273586487344
  3.0101195578841651  7.0825442414802708 26.9244150731737761
 11.1333622601552289 13.1749762681835669 26.9244150731737761
  5.0409302334519355 21.2982189704546272 26.9244150731737761
 -1.0515017932513615 29.4214616727256946 26.9244150731737761
 19.2566049624262874 19.2674082948868595 26.9244150731737761
 13.1641729357229877 27.3906509971579233 26.9244150731737761
  7.0717409090196917 35.5138936994289764 26.9244150731737761
 -3.0823124688191310 15.2057869437513293 26.9244150731737761
 21.2874156379940445 33.4830830238612194 26.9244150731737761
 25.3490369891295764 11.1441655926157992 26.9244150731737761
  5.9411661004562077  6.5764144358458907 26.5763597828123466
 14.0644088027272645 12.6688464625491815 26.5763597828123466
  7.9719767760239728 20.7920891648202399 26.5763597828123466
  1.8795447493206794 28.9153318670913002 26.5763597828123466
 22.1876515049983212 18.7612784892524758 26.5763597828123466
 16.0952194782950251 26.8845211915235325 26.5763597828123466
 10.0027874515917343 35.0077638937945892 26.5763597828123466
 -0.1512659262470857 14.6996571381169474 26.5763597828123466
 -6.2436979529503827 22.8228998403880041 26.5763597828123466
 28.2800835317016173 10.6380357869814155 26.5763597828123466
  4.7837490315905127  5.4057406254404370 27.2896123198932088
 12.9069917338615703 11.4981726521437295 27.2896123198932088
  6.8145597071582742 19.6214153544147933 27.2896123198932088
  0.7221276804549817 27.7446580566858501 27.2896123198932088
 21.0302344361326305 17.5906046788470292 27.2896123198932088
 14.9378024094293380 25.7138473811180859 27.2896123198932088
  8.8453703827260437 33.8370900833891426 27.2896123198932088
 -1.3086829951127834 13.5289833277114973 27.2896123198932088
 23.0610451117003947 31.8062794078213855 27.2896123198932088
 27.1226664628359302  9.4673619765759671 27.2896123198932088
  5.0730859257078649  4.8087393150469335 24.9760076673599869
 13.1963286279789251 10.9011713417502314 24.9760076673599869
  7.1038966012756326 19.0244140440212881 24.9760076673599869
  1.0114645745723401 27.1476567462923484 24.9760076673599869
 21.3195713302499854 16.9936033684535204 24.9760076673599869
 15.2271393035466893 25.1168460707245842 24.9760076673599869
  9.1347072768433950 33.2400887729956480 24.9760076673599869
 -1.0193461009954286 12.9319820173179920 24.9760076673599869
 23.3503820058177496 31.2092780974278767 24.9760076673599869
 17.2579499791144535 39.3325207996989334 24.9760076673599869
  3.4133811485357644  5.4704130949515006 25.1546002713123471
 11.5366238508068246 11.5628451216547958 25.1546002713123471
  5.4441918241035294 19.6860878239258561 25.1546002713123471
 -0.6482402025997649 27.8093305261969164 25.1546002713123471
 19.6598665530778831 17.6552771483580884 25.1546002713123471
 13.5674345263745852 25.7785198506291522 25.1546002713123471
  7.4750024996712980 33.9017625529002089 25.1546002713123471
 -2.6790508781675308 13.5936557972225582 25.1546002713123471
 21.6906772286456402 31.8709518773324412 25.1546002713123471
 25.7522985797811721  9.5320344460870281 25.1546002713123471
  4.1545994147909635  7.6549461491367889 24.2002128558833576
 12.2778421170620291 13.7473781758400833 24.2002128558833576
  6.1854100903587312 21.8706208781111400 24.2002128558833576
  0.0929780636554369 29.9938635803822038 24.2002128558833576
 20.4010848193330858 19.8398102025433758 24.2002128558833576
 14.3086527926297897 27.9630529048144361 24.2002128558833576
  8.2162207659264972 36.0862956070854892 24.2002128558833576
 -1.9378326119123317 15.7781888514078474 24.2002128558833576
 22.4318954949008571 34.0554849315177322 24.2002128558833576
 26.4935168460363784 11.7165675002723191 24.2002128558833576
  5.8622251945071664  7.0689632454984652 24.1314789156789615
 13.9854678967782196 13.1613952722017551 24.1314789156789615
  7.8930358700749279 21.2846379744728154 24.1314789156789615
  1.8006038433716345 29.4078806767438756 24.1314789156789615
 22.1087105990492816 19.2538272989050512 24.1314789156789615
 16.0162785723459891 27.3770700011761114 24.1314789156789615
  9.9238465456426947 35.5003127034471646 24.1314789156789615
 -0.2302068321961279 15.1922059477695246 24.1314789156789615
 -6.3226388588994187 23.3154486500405866 24.1314789156789615
 28.2011426257525777 11.1305845966339927 24.1314789156789615
  5.1735482421690744  5.2668729275389907 22.5308677901059085
 13.2967909444401329 11.3593049542422833 22.5308677901059085
  7.2043589177368395 19.4825476565133471 22.5308677901059085
  1.1119268910335460 27.6057903587844002 22.5308677901059085
 21.4200336467111931 17.4517369809455758 22.5308677901059085
 15.3276016200079042 25.5749796832166396 22.5308677901059085
  9.2351695933046134 33.6982223854876963 22.5308677901059085
 -0.9188837845342235 13.3901156298100474 22.5308677901059085
 -7.0113158112375196 21.5133583320811042 22.5308677901059085
 27.5124656734144857  9.3284942786745209 22.5308677901059085
  3.4644399436720903  5.8427684481621291 22.6140873260427995
 11.5876826459431506 11.9352004748654217 22.6140873260427995
  5.4952506192398589 20.0584431771364819 22.6140873260427995
 -0.5971814074634398 28.1816858794075387 22.6140873260427995
 19.7109253482142108 18.0276325015687178 22.6140873260427995
 13.6184933215109218 26.1508752038397745 22.6140873260427995
  7.5260612948076204 34.2741179061108383 22.6140873260427995
 -2.6279920830312040 13.9660111504331912 22.6140873260427995
 21.7417360237819786 32.2433072305430741 22.6140873260427995
 25.8033573749175069  9.9043897992976575 22.6140873260427995
  5.8830879661983877  7.5046117163498325 21.6331969288767993
 14.0063306684694453 13.5970437430531241 21.6331969288767993
  7.9138986417661501 21.7202864453241880 21.6331969288767993
  1.8214666150628567 29.8435291475952447 21.6331969288767993
 22.1295733707405020 19.6894757697564202 21.6331969288767993
 16.0371413440372095 27.8127184720274911 21.6331969288767993
  9.9447093173339223 35.9359611742985479 21.6331969288767993
 -0.2093440605049137 15.6278544186208883 21.6331969288767993
 -6.3017760872082089 23.7510971208919486 21.6331969288767993
 28.2220053974437945 11.5662330674853564 21.6331969288767993
  4.1757431682635886  8.0789188568526260 21.7137465740011208
 12.2989858705346506 14.1713508835559239 21.7137465740011208
  6.2065538438313554 22.2945935858269841 21.7137465740011208
  0.1141218171280585 30.4178362880980480 21.7137465740011208
 20.4222285728057109 20.2637829102592093 21.7137465740011208
 14.3297965461024113 28.3870256125302802 21.7137465740011208
  8.2373645193991187 36.5102683148013440 21.7137465740011208
 -1.9166888584397066 16.2021615591236845 21.7137465740011208
 -8.0091208851430036 24.3254042613947448 21.7137465740011208
 26.5146605995090034 12.1405402079881561 21.7137465740011208
  3.5611159225223910  6.3239438545941864 20.1709995206087314
 11.6843586247934503 12.4163758812974798 20.1709995206087314
  5.5919265980901569 20.5396185835685330 20.1709995206087314
 -0.5005054286131401 28.6628612858396004 20.1709995206087314
 19.8076013270645106 18.5088079080007724 20.1709995206087314
 13.7151693003612216 26.6320506102718362 20.1709995206087314
  7.6227372736579220 34.7552933125429035 20.1709995206087314
 -2.5313161041808989 14.4471865568652440 20.1709995206087314
 21.8384120026322819 32.7244826369751323 20.1709995206087314
 25.9000333537678138 10.3855652057297139 20.1709995206087314
  4.7712026310447131  7.3277071755745045 19.5205901650752409
 12.8944453333157725 13.4201392022777988 19.5205901650752409
  6.8020133066124773 21.5433819045488590 19.5205901650752409
  0.7095812799091821 29.6666246068199229 19.5205901650752409
 21.0176880355868363 19.5125712289810949 19.5205901650752409
 14.9252560088835402 27.6358139312521551 19.5205901650752409
  8.8328239821802406 35.7590566335232154 19.5205901650752409
 -1.3212293956585870 15.4509498778455630 19.5205901650752409
 -7.4136614223618755 23.5741925801166197 19.5205901650752409
 27.1101200622901182 11.3893285267100346 19.5205901650752409
  5.1817961933122891  5.7793806608813938 20.0941193415438732
 13.3050388955833512 11.8718126875846917 20.0941193415438732
  7.2126068688800578 19.9950553898557537 20.0941193415438732
  1.1201748421767643 28.1182980921268033 20.0941193415438732
 21.4282815978544114 17.9642447142879789 20.0941193415438732
 15.3358495711511154 26.0874874165590462 20.0941193415438732
  9.2434175444478264 34.2107301188301065 20.0941193415438732
 -0.9106358333910105 13.9026233631524505 20.0941193415438732
 -7.0030678600943084 22.0258660654235108 20.0941193415438732
 27.5207136245577004  9.8410020120169186 20.0941193415438732
