Pb  I  N  C  N  H  N  C  N  H  N  C  N  H  N  C  N  H Pb  I  N  C  N  H  N  C  N  H  N  C  N  H  N  C  N  H 
 1.0000000000000000
    71.0783736448717605   30.4621601335164698    0.0000000000000000
   -30.4621601335164698   71.0783736448717605    0.0000000000000000
     0.0000000000000000    0.0000000000000000   42.1520779364791665
 Pb  I   N   C   N   H   N   C   N   H   N   C   N   H   N   C   N   H   Pb  I   N   C   N   H   N   C   N   H   N   C   N   H   N   C   N   H  
 116 464  58 232  58 812  58 232  58 812  58 232  58 812  58 232  58 812 116 464  58 232  58 812  58 232  58 812  58 232  58 812  58 232  58 812
Cartesian
 -17.7695934112179401 53.3087802336538275 26.5760389682395832
 -17.7695934112179330 63.4628336114926626 26.5760389682395832
 -17.7695934112179330 73.6168869893314906 26.5760389682395832
 -7.6155400333791112 33.0006734779761786 26.5760389682395832
 -7.6155400333791139 43.1547268558150137 26.5760389682395832
 -7.6155400333791121 53.3087802336538417 26.5760389682395832
 -7.6155400333791121 63.4628336114926626 26.5760389682395832
 -7.6155400333791192 73.6168869893314763 26.5760389682395832
  2.5385133444597066  2.5385133444597061 26.5760389682395832
  2.5385133444597079 12.6925667222985314 26.5760389682395832
  2.5385133444597070 22.8466201001373541 26.5760389682395832
  2.5385133444597106 33.0006734779761786 26.5760389682395832
  2.5385133444597017 43.1547268558150137 26.5760389682395832
  2.5385133444597017 53.3087802336538488 26.5760389682395832
  2.5385133444597123 63.4628336114926626 26.5760389682395832
  2.5385133444597159 73.6168869893314763 26.5760389682395832
  2.5385133444597088 83.7709403671703257 26.5760389682395832
 12.6925667222985297 12.6925667222985314 26.5760389682395832
 12.6925667222985332 22.8466201001373577 26.5760389682395832
 12.6925667222985332 33.0006734779761786 26.5760389682395832
 12.6925667222985208 43.1547268558150137 26.5760389682395832
 12.6925667222985368 53.3087802336538346 26.5760389682395832
 12.6925667222985261 63.4628336114926697 26.5760389682395832
 12.6925667222985332 73.6168869893315048 26.5760389682395832
 12.6925667222985368 83.7709403671703114 26.5760389682395832
 22.8466201001373470 12.6925667222985279 26.5760389682395832
 22.8466201001373541 22.8466201001373541 26.5760389682395832
 22.8466201001373506 33.0006734779761786 26.5760389682395832
 22.8466201001373577 43.1547268558150137 26.5760389682395832
 22.8466201001373470 53.3087802336538346 26.5760389682395832
 22.8466201001373435 63.4628336114926626 26.5760389682395832
 22.8466201001373612 73.6168869893314763 26.5760389682395832
 22.8466201001373399 83.7709403671703114 26.5760389682395832
 53.3087802336538275 22.8466201001373541 26.5760389682395832
 33.0006734779761572 22.8466201001373541 26.5760389682395832
 33.0006734779761715 33.0006734779761786 26.5760389682395832
 33.0006734779761786 43.1547268558150137 26.5760389682395832
 33.0006734779761857 53.3087802336538417 26.5760389682395832
 33.0006734779761786 63.4628336114926697 26.5760389682395832
 33.0006734779761786 73.6168869893314763 26.5760389682395832
 33.0006734779761786 83.7709403671703114 26.5760389682395832
 33.0006734779761786 93.9249937450091181 26.5760389682395832
 43.1547268558149923 22.8466201001373612 26.5760389682395832
 43.1547268558149995 33.0006734779761786 26.5760389682395832
 43.1547268558150137 43.1547268558150137 26.5760389682395832
 43.1547268558150137 53.3087802336538417 26.5760389682395832
 43.1547268558149995 63.4628336114926768 26.5760389682395832
 43.1547268558149995 73.6168869893314621 26.5760389682395832
 43.1547268558150137 83.7709403671703114 26.5760389682395832
 43.1547268558149995 93.9249937450091181 26.5760389682395832
 53.3087802336538203 33.0006734779761786 26.5760389682395832
 53.3087802336538061 43.1547268558150137 26.5760389682395832
 53.3087802336538275 53.3087802336538203 26.5760389682395832
 53.3087802336538203 63.4628336114926555 26.5760389682395832
 -17.7695934112179401 43.1547268558149923 26.5760389682395832
 63.4628336114926341 33.0006734779761786 26.5760389682395832
 63.4628336114926270 43.1547268558150137 26.5760389682395832
 -7.6155400333791130 22.8466201001373648 26.5760389682395832
 -12.6925667222985261 58.3858069225732592 26.5760389682395832
 -12.6925667222985279 68.5398603004120588 26.5760389682395832
 17.7695934112179437  7.6155400333791405 26.5760389682395832
 -2.5385133444597070 38.0777001668956032 26.5760389682395832
 -2.5385133444597017 48.2317535447344170 26.5760389682395832
 -2.5385133444596981 58.3858069225732521 26.5760389682395832
 -2.5385133444597052 68.5398603004120872 26.5760389682395832
 -2.5385133444596946 78.6939136782508939 26.5760389682395832
  7.6155400333791174  7.6155400333791174 26.5760389682395832
  7.6155400333791183 17.7695934112179437 26.5760389682395832
  7.6155400333791192 27.9236467890567752 26.5760389682395832
  7.6155400333791192 38.0777001668956032 26.5760389682395832
  7.6155400333791228 48.2317535447344170 26.5760389682395832
  7.6155400333791192 58.3858069225732450 26.5760389682395832
  7.6155400333791263 68.5398603004120588 26.5760389682395832
  7.6155400333791263 78.6939136782509081 26.5760389682395832
 38.0777001668955890 17.7695934112179614 26.5760389682395832
 17.7695934112179366 17.7695934112179401 26.5760389682395832
 17.7695934112179437 27.9236467890567752 26.5760389682395832
 17.7695934112179508 38.0777001668955961 26.5760389682395832
 17.7695934112179330 48.2317535447344241 26.5760389682395832
 17.7695934112179543 58.3858069225732592 26.5760389682395832
 17.7695934112179401 68.5398603004120588 26.5760389682395832
 17.7695934112179437 78.6939136782509081 26.5760389682395832
 17.7695934112179579 88.8479670560897148 26.5760389682395832
 27.9236467890567681 17.7695934112179437 26.5760389682395832
 27.9236467890567681 27.9236467890567681 26.5760389682395832
 27.9236467890567646 38.0777001668956032 26.5760389682395832
 27.9236467890567681 48.2317535447344170 26.5760389682395832
 27.9236467890567610 58.3858069225732521 26.5760389682395832
 27.9236467890567681 68.5398603004120730 26.5760389682395832
 27.9236467890567610 78.6939136782508939 26.5760389682395832
 27.9236467890567752 88.8479670560897006 26.5760389682395832
 58.3858069225732237 27.9236467890567930 26.5760389682395832
 38.0777001668955890 27.9236467890567646 26.5760389682395832
 38.0777001668955961 38.0777001668955961 26.5760389682395832
 38.0777001668955819 48.2317535447344170 26.5760389682395832
 38.0777001668955890 58.3858069225732379 26.5760389682395832
 38.0777001668955890 68.5398603004120872 26.5760389682395832
 38.0777001668955819 78.6939136782508797 26.5760389682395832
 38.0777001668956032 88.8479670560897148 26.5760389682395832
 38.0777001668955890 99.0020204339285783 26.5760389682395832
 48.2317535447344028 27.9236467890567610 26.5760389682395832
 48.2317535447344099 38.0777001668955890 26.5760389682395832
 48.2317535447344170 48.2317535447344170 26.5760389682395832
 48.2317535447344241 58.3858069225732521 26.5760389682395832
 48.2317535447344170 68.5398603004120588 26.5760389682395832
 48.2317535447344170 78.6939136782508797 26.5760389682395832
 -22.8466201001373506 58.3858069225732521 26.5760389682395832
 -22.8466201001373719 68.5398603004120730 26.5760389682395832
 58.3858069225732379 38.0777001668955961 26.5760389682395832
 58.3858069225732308 48.2317535447344312 26.5760389682395832
 58.3858069225732521 58.3858069225732521 26.5760389682395832
 -12.6925667222985297 38.0777001668955890 26.5760389682395832
 -12.6925667222985332 48.2317535447344241 26.5760389682395832
 -2.5385133444597106  7.6155400333791201 26.5760389682395832
 -2.5385133444597274 17.7695934112179401 26.5760389682395832
 -2.5385133444597141 27.9236467890567752 26.5760389682395832
 -17.7695934112179401 53.3087802336538275 22.9860389682395834
 -17.7695934112179330 63.4628336114926626 22.9860389682395834
 -17.7695934112179330 73.6168869893314906 22.9860389682395834
 -7.6155400333791112 33.0006734779761786 22.9860389682395834
 -7.6155400333791139 43.1547268558150137 22.9860389682395834
 -7.6155400333791121 53.3087802336538417 22.9860389682395834
 -7.6155400333791121 63.4628336114926626 22.9860389682395834
 -7.6155400333791192 73.6168869893314763 22.9860389682395834
  2.5385133444597066  2.5385133444597061 22.9860389682395834
  2.5385133444597079 12.6925667222985314 22.9860389682395834
  2.5385133444597070 22.8466201001373541 22.9860389682395834
  2.5385133444597106 33.0006734779761786 22.9860389682395834
  2.5385133444597017 43.1547268558150137 22.9860389682395834
  2.5385133444597017 53.3087802336538488 22.9860389682395834
  2.5385133444597123 63.4628336114926626 22.9860389682395834
  2.5385133444597159 73.6168869893314763 22.9860389682395834
  2.5385133444597088 83.7709403671703257 22.9860389682395834
 12.6925667222985297 12.6925667222985314 22.9860389682395834
 12.6925667222985332 22.8466201001373577 22.9860389682395834
 12.6925667222985332 33.0006734779761786 22.9860389682395834
 12.6925667222985208 43.1547268558150137 22.9860389682395834
 12.6925667222985368 53.3087802336538346 22.9860389682395834
 12.6925667222985261 63.4628336114926697 22.9860389682395834
 12.6925667222985332 73.6168869893315048 22.9860389682395834
 12.6925667222985368 83.7709403671703114 22.9860389682395834
 22.8466201001373470 12.6925667222985279 22.9860389682395834
 22.8466201001373541 22.8466201001373541 22.9860389682395834
 22.8466201001373506 33.0006734779761786 22.9860389682395834
 22.8466201001373577 43.1547268558150137 22.9860389682395834
 22.8466201001373470 53.3087802336538346 22.9860389682395834
 22.8466201001373435 63.4628336114926626 22.9860389682395834
 22.8466201001373612 73.6168869893314763 22.9860389682395834
 22.8466201001373399 83.7709403671703114 22.9860389682395834
 53.3087802336538275 22.8466201001373541 22.9860389682395834
 33.0006734779761572 22.8466201001373541 22.9860389682395834
 33.0006734779761715 33.0006734779761786 22.9860389682395834
 33.0006734779761786 43.1547268558150137 22.9860389682395834
 33.0006734779761857 53.3087802336538417 22.9860389682395834
 33.0006734779761786 63.4628336114926697 22.9860389682395834
 33.0006734779761786 73.6168869893314763 22.9860389682395834
 33.0006734779761786 83.7709403671703114 22.9860389682395834
 33.0006734779761786 93.9249937450091181 22.9860389682395834
 43.1547268558149923 22.8466201001373612 22.9860389682395834
 43.1547268558149995 33.0006734779761786 22.9860389682395834
 43.1547268558150137 43.1547268558150137 22.9860389682395834
 43.1547268558150137 53.3087802336538417 22.9860389682395834
 43.1547268558149995 63.4628336114926768 22.9860389682395834
 43.1547268558149995 73.6168869893314621 22.9860389682395834
 43.1547268558150137 83.7709403671703114 22.9860389682395834
 43.1547268558149995 93.9249937450091181 22.9860389682395834
 53.3087802336538203 33.0006734779761786 22.9860389682395834
 53.3087802336538061 43.1547268558150137 22.9860389682395834
 53.3087802336538275 53.3087802336538203 22.9860389682395834
 53.3087802336538203 63.4628336114926555 22.9860389682395834
 -17.7695934112179401 43.1547268558149923 22.9860389682395834
 63.4628336114926341 33.0006734779761786 22.9860389682395834
 63.4628336114926270 43.1547268558150137 22.9860389682395834
 -7.6155400333791130 22.8466201001373648 22.9860389682395834
 -12.6925667222985261 58.3858069225732592 22.9860389682395834
 -12.6925667222985279 68.5398603004120588 22.9860389682395834
 17.7695934112179437  7.6155400333791405 22.9860389682395834
 -2.5385133444597070 38.0777001668956032 22.9860389682395834
 -2.5385133444597017 48.2317535447344170 22.9860389682395834
 -2.5385133444596981 58.3858069225732521 22.9860389682395834
 -2.5385133444597052 68.5398603004120872 22.9860389682395834
 -2.5385133444596946 78.6939136782508939 22.9860389682395834
  7.6155400333791174  7.6155400333791174 22.9860389682395834
  7.6155400333791183 17.7695934112179437 22.9860389682395834
  7.6155400333791192 27.9236467890567752 22.9860389682395834
  7.6155400333791192 38.0777001668956032 22.9860389682395834
  7.6155400333791228 48.2317535447344170 22.9860389682395834
  7.6155400333791192 58.3858069225732450 22.9860389682395834
  7.6155400333791263 68.5398603004120588 22.9860389682395834
  7.6155400333791263 78.6939136782509081 22.9860389682395834
 38.0777001668955890 17.7695934112179614 22.9860389682395834
 17.7695934112179366 17.7695934112179401 22.9860389682395834
 17.7695934112179437 27.9236467890567752 22.9860389682395834
 17.7695934112179508 38.0777001668955961 22.9860389682395834
 17.7695934112179330 48.2317535447344241 22.9860389682395834
 17.7695934112179543 58.3858069225732592 22.9860389682395834
 17.7695934112179401 68.5398603004120588 22.9860389682395834
 17.7695934112179437 78.6939136782509081 22.9860389682395834
 17.7695934112179579 88.8479670560897148 22.9860389682395834
 27.9236467890567681 17.7695934112179437 22.9860389682395834
 27.9236467890567681 27.9236467890567681 22.9860389682395834
 27.9236467890567646 38.0777001668956032 22.9860389682395834
 27.9236467890567681 48.2317535447344170 22.9860389682395834
 27.9236467890567610 58.3858069225732521 22.9860389682395834
 27.9236467890567681 68.5398603004120730 22.9860389682395834
 27.9236467890567610 78.6939136782508939 22.9860389682395834
 27.9236467890567752 88.8479670560897006 22.9860389682395834
 58.3858069225732237 27.9236467890567930 22.9860389682395834
 38.0777001668955890 27.9236467890567646 22.9860389682395834
 38.0777001668955961 38.0777001668955961 22.9860389682395834
 38.0777001668955819 48.2317535447344170 22.9860389682395834
 38.0777001668955890 58.3858069225732379 22.9860389682395834
 38.0777001668955890 68.5398603004120872 22.9860389682395834
 38.0777001668955819 78.6939136782508797 22.9860389682395834
 38.0777001668956032 88.8479670560897148 22.9860389682395834
 38.0777001668955890 99.0020204339285783 22.9860389682395834
 48.2317535447344028 27.9236467890567610 22.9860389682395834
 48.2317535447344099 38.0777001668955890 22.9860389682395834
 48.2317535447344170 48.2317535447344170 22.9860389682395834
 48.2317535447344241 58.3858069225732521 22.9860389682395834
 48.2317535447344170 68.5398603004120588 22.9860389682395834
 48.2317535447344170 78.6939136782508797 22.9860389682395834
 -22.8466201001373506 58.3858069225732521 22.9860389682395834
 -22.8466201001373719 68.5398603004120730 22.9860389682395834
 58.3858069225732379 38.0777001668955961 22.9860389682395834
 58.3858069225732308 48.2317535447344312 22.9860389682395834
 58.3858069225732521 58.3858069225732521 22.9860389682395834
 -12.6925667222985297 38.0777001668955890 22.9860389682395834
 -12.6925667222985332 48.2317535447344241 22.9860389682395834
 -2.5385133444597106  7.6155400333791201 22.9860389682395834
 -2.5385133444597274 17.7695934112179401 22.9860389682395834
 -2.5385133444597141 27.9236467890567752 22.9860389682395834
 -20.3081067556776453 50.7702668891941258 26.5760389682395832
 -20.3081067556776418 60.9243202670329609 26.5760389682395832
 -20.3081067556776382 71.0783736448717747 26.5760389682395832
 -10.1540533778388209 30.4621601335164804 26.5760389682395832
 -10.1540533778388244 40.6162135113552978 26.5760389682395832
 -10.1540533778388173 50.7702668891941187 26.5760389682395832
 -10.1540533778388156 60.9243202670329538 26.5760389682395832
 -10.1540533778388173 71.0783736448717747 26.5760389682395832
  0.0000000000000000  0.0000000000000000 26.5760389682395832
  0.0000000000000009 10.1540533778388244 26.5760389682395832
  0.0000000000000018 20.3081067556776489 26.5760389682395832
  0.0000000000000036 30.4621601335164769 26.5760389682395832
  0.0000000000000036 40.6162135113552978 26.5760389682395832
 -0.0000000000000036 50.7702668891941258 26.5760389682395832
  0.0000000000000071 60.9243202670329538 26.5760389682395832
  0.0000000000000071 71.0783736448717747 26.5760389682395832
  0.0000000000000071 81.2324270227105956 26.5760389682395832
 10.1540533778388280 10.1540533778388244 26.5760389682395832
 10.1540533778388262 20.3081067556776524 26.5760389682395832
 10.1540533778388262 30.4621601335164804 26.5760389682395832
 10.1540533778388191 40.6162135113552978 26.5760389682395832
 10.1540533778388316 50.7702668891941258 26.5760389682395832
 10.1540533778388244 60.9243202670329609 26.5760389682395832
 10.1540533778388244 71.0783736448717747 26.5760389682395832
 10.1540533778388244 81.2324270227105956 26.5760389682395832
 20.3081067556776418 10.1540533778388244 26.5760389682395832
 20.3081067556776560 20.3081067556776489 26.5760389682395832
 20.3081067556776489 30.4621601335164769 26.5760389682395832
 20.3081067556776524 40.6162135113553049 26.5760389682395832
 20.3081067556776418 50.7702668891941187 26.5760389682395832
 20.3081067556776524 60.9243202670329609 26.5760389682395832
 20.3081067556776347 71.0783736448717747 26.5760389682395832
 20.3081067556776382 81.2324270227105956 26.5760389682395832
 20.3081067556776667 91.3864804005494165 26.5760389682395832
 30.4621601335164591 20.3081067556776489 26.5760389682395832
 30.4621601335164627 30.4621601335164698 26.5760389682395832
 30.4621601335164627 40.6162135113552907 26.5760389682395832
 30.4621601335164804 50.7702668891941329 26.5760389682395832
 30.4621601335164840 60.9243202670329538 26.5760389682395832
 30.4621601335164733 71.0783736448717747 26.5760389682395832
 30.4621601335164698 81.2324270227105956 26.5760389682395832
 30.4621601335164804 91.3864804005494449 26.5760389682395832
 40.6162135113552836 20.3081067556776489 26.5760389682395832
 40.6162135113552978 30.4621601335164769 26.5760389682395832
 40.6162135113553120 40.6162135113552978 26.5760389682395832
 40.6162135113552836 50.7702668891941258 26.5760389682395832
 40.6162135113552978 60.9243202670329538 26.5760389682395832
 40.6162135113552907 71.0783736448717605 26.5760389682395832
 40.6162135113553049 81.2324270227106098 26.5760389682395832
 40.6162135113552836 91.3864804005494165 26.5760389682395832
 50.7702668891941116 30.4621601335164698 26.5760389682395832
 50.7702668891941045 40.6162135113552978 26.5760389682395832
 50.7702668891941116 50.7702668891941258 26.5760389682395832
 50.7702668891941187 60.9243202670329538 26.5760389682395832
 50.7702668891941116 71.0783736448717605 26.5760389682395832
 60.9243202670329254 30.4621601335164627 26.5760389682395832
 60.9243202670329183 40.6162135113552978 26.5760389682395832
 60.9243202670329325 50.7702668891941258 26.5760389682395832
 -15.2310800667582313 50.7702668891941258 26.5760389682395832
 -15.2310800667582260 60.9243202670329538 26.5760389682395832
 -15.2310800667582296 71.0783736448717747 26.5760389682395832
 -5.0770266889194078 30.4621601335164769 26.5760389682395832
 -5.0770266889194122 40.6162135113552978 26.5760389682395832
 -5.0770266889194122 50.7702668891941187 26.5760389682395832
 -5.0770266889194033 60.9243202670329538 26.5760389682395832
 -5.0770266889194033 71.0783736448717747 26.5760389682395832
 -25.3851334445970558 71.0783736448717605 26.5760389682395832
  5.0770266889194131 10.1540533778388262 26.5760389682395832
  5.0770266889194113 20.3081067556776489 26.5760389682395832
  5.0770266889194140 30.4621601335164804 26.5760389682395832
  5.0770266889194122 40.6162135113552978 26.5760389682395832
  5.0770266889194140 50.7702668891941258 26.5760389682395832
  5.0770266889194211 60.9243202670329467 26.5760389682395832
  5.0770266889194140 71.0783736448717747 26.5760389682395832
  5.0770266889194104 81.2324270227105956 26.5760389682395832
 15.2310800667582367 10.1540533778388244 26.5760389682395832
 15.2310800667582349 20.3081067556776489 26.5760389682395832
 15.2310800667582420 30.4621601335164769 26.5760389682395832
 15.2310800667582349 40.6162135113552978 26.5760389682395832
 15.2310800667582313 50.7702668891941258 26.5760389682395832
 15.2310800667582420 60.9243202670329609 26.5760389682395832
 15.2310800667582313 71.0783736448717747 26.5760389682395832
 15.2310800667582384 81.2324270227105956 26.5760389682395832
 -5.0770266889194140 81.2324270227105956 26.5760389682395832
 25.3851334445970629 20.3081067556776524 26.5760389682395832
 25.3851334445970593 30.4621601335164769 26.5760389682395832
 25.3851334445970593 40.6162135113552978 26.5760389682395832
 25.3851334445970487 50.7702668891941187 26.5760389682395832
 25.3851334445970593 60.9243202670329609 26.5760389682395832
 25.3851334445970487 71.0783736448717747 26.5760389682395832
 25.3851334445970380 81.2324270227105956 26.5760389682395832
 25.3851334445970664 91.3864804005494022 26.5760389682395832
 35.5391868224358731 20.3081067556776453 26.5760389682395832
 35.5391868224358660 30.4621601335164698 26.5760389682395832
 35.5391868224358660 40.6162135113552978 26.5760389682395832
 35.5391868224358802 50.7702668891941258 26.5760389682395832
 35.5391868224358802 60.9243202670329538 26.5760389682395832
 35.5391868224358944 71.0783736448717605 26.5760389682395832
 35.5391868224358802 81.2324270227105956 26.5760389682395832
 35.5391868224358944 91.3864804005494165 26.5760389682395832
 45.6932402002746940 20.3081067556776489 26.5760389682395832
 45.6932402002747011 30.4621601335164698 26.5760389682395832
 45.6932402002747082 40.6162135113552978 26.5760389682395832
 45.6932402002747153 50.7702668891941329 26.5760389682395832
 45.6932402002747153 60.9243202670329538 26.5760389682395832
 45.6932402002747011 71.0783736448717605 26.5760389682395832
 45.6932402002747153 81.2324270227105956 26.5760389682395832
 -25.3851334445970451 60.9243202670329609 26.5760389682395832
 55.8472935781135220 30.4621601335164698 26.5760389682395832
 55.8472935781135220 40.6162135113552978 26.5760389682395832
 55.8472935781135220 50.7702668891941258 26.5760389682395832
 55.8472935781135220 60.9243202670329538 26.5760389682395832
 -15.2310800667582260 40.6162135113552978 26.5760389682395832
 66.0013469559523571 30.4621601335164769 26.5760389682395832
 66.0013469559523571 40.6162135113553049 26.5760389682395832
 -5.0770266889194140 20.3081067556776631 26.5760389682395832
 -20.3081067556776382 55.8472935781135291 26.5760389682395832
 -20.3081067556776347 66.0013469559523571 26.5760389682395832
 10.1540533778388244  5.0770266889194460 26.5760389682395832
 -10.1540533778388191 35.5391868224358873 26.5760389682395832
 -10.1540533778388173 45.6932402002747082 26.5760389682395832
 -10.1540533778388209 55.8472935781135504 26.5760389682395832
 -10.1540533778388156 66.0013469559523571 26.5760389682395832
 -10.1540533778388173 76.1554003337911922 26.5760389682395832
  0.0000000000000004  5.0770266889194113 26.5760389682395832
  0.0000000000000018 15.2310800667582349 26.5760389682395832
  0.0000000000000000 25.3851334445970629 26.5760389682395832
  0.0000000000000036 35.5391868224358873 26.5760389682395832
  0.0000000000000071 45.6932402002747082 26.5760389682395832
  0.0000000000000036 55.8472935781135433 26.5760389682395832
  0.0000000000000142 66.0013469559523571 26.5760389682395832
  0.0000000000000000 76.1554003337911922 26.5760389682395832
 30.4621601335164698 15.2310800667582633 26.5760389682395832
 10.1540533778388244 15.2310800667582349 26.5760389682395832
 10.1540533778388244 25.3851334445970629 26.5760389682395832
 10.1540533778388280 35.5391868224358944 26.5760389682395832
 10.1540533778388244 45.6932402002747011 26.5760389682395832
 10.1540533778388280 55.8472935781135504 26.5760389682395832
 10.1540533778388316 66.0013469559523571 26.5760389682395832
 10.1540533778388280 76.1554003337912064 26.5760389682395832
 10.1540533778388351 86.3094537116300273 26.5760389682395832
 20.3081067556776418 15.2310800667582349 26.5760389682395832
 20.3081067556776560 25.3851334445970593 26.5760389682395832
 20.3081067556776524 35.5391868224358873 26.5760389682395832
 20.3081067556776489 45.6932402002747082 26.5760389682395832
 20.3081067556776524 55.8472935781135575 26.5760389682395832
 20.3081067556776595 66.0013469559523571 26.5760389682395832
 20.3081067556776382 76.1554003337911922 26.5760389682395832
 20.3081067556776382 86.3094537116300131 26.5760389682395832
 50.7702668891941258 25.3851334445970913 26.5760389682395832
 30.4621601335164591 25.3851334445970629 26.5760389682395832
 30.4621601335164698 35.5391868224358873 26.5760389682395832
 30.4621601335164698 45.6932402002747082 26.5760389682395832
 30.4621601335164733 55.8472935781135433 26.5760389682395832
 30.4621601335164627 66.0013469559523571 26.5760389682395832
 30.4621601335164840 76.1554003337911780 26.5760389682395832
 30.4621601335164733 86.3094537116300273 26.5760389682395832
 30.4621601335164840 96.4635070894688624 26.5760389682395832
 40.6162135113552836 25.3851334445970629 26.5760389682395832
 40.6162135113553049 35.5391868224358802 26.5760389682395832
 40.6162135113553120 45.6932402002747082 26.5760389682395832
 40.6162135113552907 55.8472935781135504 26.5760389682395832
 40.6162135113552978 66.0013469559523571 26.5760389682395832
 40.6162135113552978 76.1554003337911780 26.5760389682395832
 40.6162135113552836 86.3094537116300273 26.5760389682395832
 40.6162135113552907 96.4635070894688340 26.5760389682395832
 50.7702668891941258 35.5391868224358873 26.5760389682395832
 50.7702668891941045 45.6932402002747082 26.5760389682395832
 50.7702668891941258 55.8472935781135504 26.5760389682395832
 50.7702668891941329 66.0013469559523571 26.5760389682395832
 50.7702668891941329 76.1554003337911922 26.5760389682395832
 60.9243202670329467 35.5391868224358802 26.5760389682395832
 60.9243202670329111 45.6932402002747153 26.5760389682395832
 -10.1540533778388120 25.3851334445970700 26.5760389682395832
 -15.2310800667582331 55.8472935781135291 26.5760389682395832
 -15.2310800667582225 66.0013469559523571 26.5760389682395832
 -15.2310800667582331 76.1554003337912064 26.5760389682395832
 -5.0770266889194087 35.5391868224358873 26.5760389682395832
 -5.0770266889194033 45.6932402002747082 26.5760389682395832
 -5.0770266889194087 55.8472935781135504 26.5760389682395832
 -5.0770266889194033 66.0013469559523571 26.5760389682395832
 -5.0770266889194104 76.1554003337912064 26.5760389682395832
  5.0770266889194131  5.0770266889194122 26.5760389682395832
  5.0770266889194149 15.2310800667582367 26.5760389682395832
  5.0770266889194158 25.3851334445970629 26.5760389682395832
  5.0770266889194122 35.5391868224358873 26.5760389682395832
  5.0770266889194140 45.6932402002747082 26.5760389682395832
  5.0770266889194140 55.8472935781135433 26.5760389682395832
  5.0770266889194211 66.0013469559523571 26.5760389682395832
  5.0770266889194140 76.1554003337912064 26.5760389682395832
 35.5391868224358731 15.2310800667582722 26.5760389682395832
 15.2310800667582349 15.2310800667582349 26.5760389682395832
 15.2310800667582402 25.3851334445970664 26.5760389682395832
 15.2310800667582349 35.5391868224358873 26.5760389682395832
 15.2310800667582402 45.6932402002747224 26.5760389682395832
 15.2310800667582384 55.8472935781135504 26.5760389682395832
 15.2310800667582384 66.0013469559523571 26.5760389682395832
 15.2310800667582313 76.1554003337911922 26.5760389682395832
 15.2310800667582420 86.3094537116300273 26.5760389682395832
 25.3851334445970558 15.2310800667582349 26.5760389682395832
 25.3851334445970593 25.3851334445970629 26.5760389682395832
 25.3851334445970629 35.5391868224358802 26.5760389682395832
 25.3851334445970664 45.6932402002747153 26.5760389682395832
 25.3851334445970487 55.8472935781135504 26.5760389682395832
 25.3851334445970664 66.0013469559523571 26.5760389682395832
 25.3851334445970522 76.1554003337911922 26.5760389682395832
 25.3851334445970416 86.3094537116300273 26.5760389682395832
 55.8472935781135220 25.3851334445970913 26.5760389682395832
 35.5391868224358802 25.3851334445970593 26.5760389682395832
 35.5391868224358731 35.5391868224358802 26.5760389682395832
 35.5391868224358731 45.6932402002747011 26.5760389682395832
 35.5391868224358873 55.8472935781135504 26.5760389682395832
 35.5391868224358944 66.0013469559523571 26.5760389682395832
 35.5391868224359015 76.1554003337911922 26.5760389682395832
 35.5391868224358802 86.3094537116300273 26.5760389682395832
 35.5391868224358802 96.4635070894688340 26.5760389682395832
 45.6932402002746940 25.3851334445970558 26.5760389682395832
 45.6932402002747082 35.5391868224358873 26.5760389682395832
 45.6932402002747082 45.6932402002747082 26.5760389682395832
 45.6932402002747011 55.8472935781135504 26.5760389682395832
 45.6932402002747011 66.0013469559523571 26.5760389682395832
 45.6932402002747224 76.1554003337912064 26.5760389682395832
 45.6932402002747153 86.3094537116300273 26.5760389682395832
 -25.3851334445970629 66.0013469559523855 26.5760389682395832
 55.8472935781135362 35.5391868224358873 26.5760389682395832
 55.8472935781135078 45.6932402002747011 26.5760389682395832
 55.8472935781135220 55.8472935781135433 26.5760389682395832
 -15.2310800667582384 35.5391868224358873 26.5760389682395832
 -15.2310800667582384 45.6932402002747153 26.5760389682395832
 66.0013469559523429 35.5391868224358731 26.5760389682395832
 -5.0770266889194362 15.2310800667582349 26.5760389682395832
 -5.0770266889194016 25.3851334445970629 26.5760389682395832
 -17.7695934112179401 53.3087802336538275 30.1660389682395831
 -17.7695934112179330 63.4628336114926626 30.1660389682395831
 -17.7695934112179330 73.6168869893314906 30.1660389682395831
 -7.6155400333791112 33.0006734779761786 30.1660389682395831
 -7.6155400333791139 43.1547268558150137 30.1660389682395831
 -7.6155400333791121 53.3087802336538417 30.1660389682395831
 -7.6155400333791121 63.4628336114926626 30.1660389682395831
 -7.6155400333791192 73.6168869893314763 30.1660389682395831
  2.5385133444597066  2.5385133444597061 30.1660389682395831
  2.5385133444597079 12.6925667222985314 30.1660389682395831
  2.5385133444597070 22.8466201001373541 30.1660389682395831
  2.5385133444597106 33.0006734779761786 30.1660389682395831
  2.5385133444597017 43.1547268558150137 30.1660389682395831
  2.5385133444597017 53.3087802336538488 30.1660389682395831
  2.5385133444597123 63.4628336114926626 30.1660389682395831
  2.5385133444597159 73.6168869893314763 30.1660389682395831
  2.5385133444597088 83.7709403671703257 30.1660389682395831
 12.6925667222985297 12.6925667222985314 30.1660389682395831
 12.6925667222985332 22.8466201001373577 30.1660389682395831
 12.6925667222985332 33.0006734779761786 30.1660389682395831
 12.6925667222985208 43.1547268558150137 30.1660389682395831
 12.6925667222985368 53.3087802336538346 30.1660389682395831
 12.6925667222985261 63.4628336114926697 30.1660389682395831
 12.6925667222985332 73.6168869893315048 30.1660389682395831
 12.6925667222985368 83.7709403671703114 30.1660389682395831
 22.8466201001373470 12.6925667222985279 30.1660389682395831
 22.8466201001373541 22.8466201001373541 30.1660389682395831
 22.8466201001373506 33.0006734779761786 30.1660389682395831
 22.8466201001373577 43.1547268558150137 30.1660389682395831
 22.8466201001373470 53.3087802336538346 30.1660389682395831
 22.8466201001373435 63.4628336114926626 30.1660389682395831
 22.8466201001373612 73.6168869893314763 30.1660389682395831
 22.8466201001373399 83.7709403671703114 30.1660389682395831
 53.3087802336538275 22.8466201001373541 30.1660389682395831
 33.0006734779761572 22.8466201001373541 30.1660389682395831
 33.0006734779761715 33.0006734779761786 30.1660389682395831
 33.0006734779761786 43.1547268558150137 30.1660389682395831
 33.0006734779761857 53.3087802336538417 30.1660389682395831
 33.0006734779761786 63.4628336114926697 30.1660389682395831
 33.0006734779761786 73.6168869893314763 30.1660389682395831
 33.0006734779761786 83.7709403671703114 30.1660389682395831
 33.0006734779761786 93.9249937450091181 30.1660389682395831
 43.1547268558149923 22.8466201001373612 30.1660389682395831
 43.1547268558149995 33.0006734779761786 30.1660389682395831
 43.1547268558150137 43.1547268558150137 30.1660389682395831
 43.1547268558150137 53.3087802336538417 30.1660389682395831
 43.1547268558149995 63.4628336114926768 30.1660389682395831
 43.1547268558149995 73.6168869893314621 30.1660389682395831
 43.1547268558150137 83.7709403671703114 30.1660389682395831
 43.1547268558149995 93.9249937450091181 30.1660389682395831
 53.3087802336538203 33.0006734779761786 30.1660389682395831
 53.3087802336538061 43.1547268558150137 30.1660389682395831
 53.3087802336538275 53.3087802336538203 30.1660389682395831
 53.3087802336538203 63.4628336114926555 30.1660389682395831
 -17.7695934112179401 43.1547268558149923 30.1660389682395831
 63.4628336114926341 33.0006734779761786 30.1660389682395831
 63.4628336114926270 43.1547268558150137 30.1660389682395831
 -7.6155400333791130 22.8466201001373648 30.1660389682395831
 -12.6925667222985261 58.3858069225732592 30.1660389682395831
 -12.6925667222985279 68.5398603004120588 30.1660389682395831
 17.7695934112179437  7.6155400333791405 30.1660389682395831
 -2.5385133444597070 38.0777001668956032 30.1660389682395831
 -2.5385133444597017 48.2317535447344170 30.1660389682395831
 -2.5385133444596981 58.3858069225732521 30.1660389682395831
 -2.5385133444597052 68.5398603004120872 30.1660389682395831
 -2.5385133444596946 78.6939136782508939 30.1660389682395831
  7.6155400333791174  7.6155400333791174 30.1660389682395831
  7.6155400333791183 17.7695934112179437 30.1660389682395831
  7.6155400333791192 27.9236467890567752 30.1660389682395831
  7.6155400333791192 38.0777001668956032 30.1660389682395831
  7.6155400333791228 48.2317535447344170 30.1660389682395831
  7.6155400333791192 58.3858069225732450 30.1660389682395831
  7.6155400333791263 68.5398603004120588 30.1660389682395831
  7.6155400333791263 78.6939136782509081 30.1660389682395831
 38.0777001668955890 17.7695934112179614 30.1660389682395831
 17.7695934112179366 17.7695934112179401 30.1660389682395831
 17.7695934112179437 27.9236467890567752 30.1660389682395831
 17.7695934112179508 38.0777001668955961 30.1660389682395831
 17.7695934112179330 48.2317535447344241 30.1660389682395831
 17.7695934112179543 58.3858069225732592 30.1660389682395831
 17.7695934112179401 68.5398603004120588 30.1660389682395831
 17.7695934112179437 78.6939136782509081 30.1660389682395831
 17.7695934112179579 88.8479670560897148 30.1660389682395831
 27.9236467890567681 17.7695934112179437 30.1660389682395831
 27.9236467890567681 27.9236467890567681 30.1660389682395831
 27.9236467890567646 38.0777001668956032 30.1660389682395831
 27.9236467890567681 48.2317535447344170 30.1660389682395831
 27.9236467890567610 58.3858069225732521 30.1660389682395831
 27.9236467890567681 68.5398603004120730 30.1660389682395831
 27.9236467890567610 78.6939136782508939 30.1660389682395831
 27.9236467890567752 88.8479670560897006 30.1660389682395831
 58.3858069225732237 27.9236467890567930 30.1660389682395831
 38.0777001668955890 27.9236467890567646 30.1660389682395831
 38.0777001668955961 38.0777001668955961 30.1660389682395831
 38.0777001668955819 48.2317535447344170 30.1660389682395831
 38.0777001668955890 58.3858069225732379 30.1660389682395831
 38.0777001668955890 68.5398603004120872 30.1660389682395831
 38.0777001668955819 78.6939136782508797 30.1660389682395831
 38.0777001668956032 88.8479670560897148 30.1660389682395831
 38.0777001668955890 99.0020204339285783 30.1660389682395831
 48.2317535447344028 27.9236467890567610 30.1660389682395831
 48.2317535447344099 38.0777001668955890 30.1660389682395831
 48.2317535447344170 48.2317535447344170 30.1660389682395831
 48.2317535447344241 58.3858069225732521 30.1660389682395831
 48.2317535447344170 68.5398603004120588 30.1660389682395831
 48.2317535447344170 78.6939136782508797 30.1660389682395831
 -22.8466201001373506 58.3858069225732521 30.1660389682395831
 -22.8466201001373719 68.5398603004120730 30.1660389682395831
 58.3858069225732379 38.0777001668955961 30.1660389682395831
 58.3858069225732308 48.2317535447344312 30.1660389682395831
 58.3858069225732521 58.3858069225732521 30.1660389682395831
 -12.6925667222985297 38.0777001668955890 30.1660389682395831
 -12.6925667222985332 48.2317535447344241 30.1660389682395831
 -2.5385133444597106  7.6155400333791201 30.1660389682395831
 -2.5385133444597274 17.7695934112179401 30.1660389682395831
 -2.5385133444597141 27.9236467890567752 30.1660389682395831
 -17.7824553820007623 58.3902945163745457 23.2416706077670874
 -17.7824553820007694 68.5443478942133737 23.2416706077670874
 12.6797047515157022  7.6200276271804546 23.2416706077670874
 -7.6284020041619467 38.0821877606969039 23.2416706077670874
 -7.6284020041619449 48.2362411385357390 23.2416706077670874
 -7.6284020041619467 58.3902945163745741 23.2416706077670874
 -7.6284020041619485 68.5443478942133737 23.2416706077670874
 -7.6284020041619378 78.6984012720521946 23.2416706077670874
  2.5256513736768751  7.6200276271804341 23.2416706077670874
  2.5256513736768795 17.7740810050192550 23.2416706077670874
  2.5256513736768795 27.9281343828580830 23.2416706077670874
  2.5256513736768778 38.0821877606969110 23.2416706077670874
  2.5256513736768795 48.2362411385357390 23.2416706077670874
  2.5256513736768795 58.3902945163745741 23.2416706077670874
  2.5256513736768795 68.5443478942134021 23.2416706077670874
  2.5256513736768795 78.6984012720522088 23.2416706077670874
 32.9878115071933564 17.7740810050192728 23.2416706077670874
 12.6797047515157111 17.7740810050192586 23.2416706077670874
 12.6797047515157058 27.9281343828580830 23.2416706077670874
 12.6797047515156951 38.0821877606969039 23.2416706077670874
 12.6797047515157004 48.2362411385357390 23.2416706077670874
 12.6797047515156969 58.3902945163745741 23.2416706077670874
 12.6797047515156933 68.5443478942134021 23.2416706077670874
 12.6797047515157111 78.6984012720522230 23.2416706077670874
 12.6797047515157111 88.8524546498910581 23.2416706077670874
 22.8337581293545249 17.7740810050192550 23.2416706077670874
 22.8337581293545284 27.9281343828580830 23.2416706077670874
 22.8337581293545142 38.0821877606969110 23.2416706077670874
 22.8337581293545355 48.2362411385357390 23.2416706077670874
 22.8337581293545178 58.3902945163745599 23.2416706077670874
 22.8337581293545142 68.5443478942133737 23.2416706077670874
 22.8337581293545107 78.6984012720522088 23.2416706077670874
 22.8337581293545178 88.8524546498910297 23.2416706077670874
 53.2959182628710053 27.9281343828580901 23.2416706077670874
 32.9878115071933351 27.9281343828580759 23.2416706077670874
 32.9878115071933351 38.0821877606969039 23.2416706077670874
 32.9878115071933422 48.2362411385357319 23.2416706077670874
 32.9878115071933422 58.3902945163745528 23.2416706077670874
 32.9878115071933280 68.5443478942133737 23.2416706077670874
 32.9878115071933493 78.6984012720521946 23.2416706077670874
 32.9878115071933422 88.8524546498910439 23.2416706077670874
 63.4499716407098120 27.9281343828580937 23.2416706077670874
 43.1418648850321631 27.9281343828580830 23.2416706077670874
 43.1418648850321702 38.0821877606969110 23.2416706077670874
 43.1418648850321844 48.2362411385357390 23.2416706077670874
 43.1418648850321631 58.3902945163745599 23.2416706077670874
 43.1418648850321631 68.5443478942134021 23.2416706077670874
 43.1418648850321631 78.6984012720521946 23.2416706077670874
 43.1418648850321631 88.8524546498910297 23.2416706077670874
 -27.9365087598396009 68.5443478942133879 23.2416706077670874
 53.2959182628709840 38.0821877606969039 23.2416706077670874
 53.2959182628709911 48.2362411385357390 23.2416706077670874
 53.2959182628709840 58.3902945163745528 23.2416706077670874
 53.2959182628709911 68.5443478942134021 23.2416706077670874
 -17.7824553820007765 48.2362411385357390 23.2416706077670874
 63.4499716407097978 38.0821877606968968 23.2416706077670874
 63.4499716407098049 48.2362411385357461 23.2416706077670874
 -7.6284020041619431 27.9281343828580866 23.2416706077670874
 -17.0000928757646967 58.5407336514360281 22.0151121192701709
 -17.0000928757647003 68.6947870292748490 22.0151121192701709
 13.4620672577517730  7.7704667622419077 22.0151121192701709
 -6.8460394979258758 38.2326268957583721 22.0151121192701709
 -6.8460394979258758 48.3866802735972144 22.0151121192701709
 -6.8460394979258758 58.5407336514360281 22.0151121192701709
 -6.8460394979258723 68.6947870292748490 22.0151121192701709
 -6.8460394979258794 78.8488404071136699 22.0151121192701709
  3.3080138799129442  7.7704667622419024 22.0151121192701709
  3.3080138799129486 17.9245201400807268 22.0151121192701709
  3.3080138799129468 28.0785735179195548 22.0151121192701709
  3.3080138799129486 38.2326268957583721 22.0151121192701709
  3.3080138799129450 48.3866802735972144 22.0151121192701709
  3.3080138799129486 58.5407336514360281 22.0151121192701709
  3.3080138799129450 68.6947870292748490 22.0151121192701709
  3.3080138799129486 78.8488404071136841 22.0151121192701709
 33.7701740134294113 17.9245201400807446 22.0151121192701709
 13.4620672577517730 17.9245201400807268 22.0151121192701709
 13.4620672577517713 28.0785735179195584 22.0151121192701709
 13.4620672577517642 38.2326268957583721 22.0151121192701709
 13.4620672577517730 48.3866802735972072 22.0151121192701709
 13.4620672577517659 58.5407336514360281 22.0151121192701709
 13.4620672577517766 68.6947870292748632 22.0151121192701709
 13.4620672577517624 78.8488404071136699 22.0151121192701709
 13.4620672577517659 89.0028937849524908 22.0151121192701709
 23.6161206355905939 17.9245201400807304 22.0151121192701709
 23.6161206355905975 28.0785735179195513 22.0151121192701709
 23.6161206355905975 38.2326268957583721 22.0151121192701709
 23.6161206355905975 48.3866802735972215 22.0151121192701709
 23.6161206355906010 58.5407336514360281 22.0151121192701709
 23.6161206355905868 68.6947870292748490 22.0151121192701709
 23.6161206355905797 78.8488404071136699 22.0151121192701709
 23.6161206355905833 89.0028937849524908 22.0151121192701709
 54.0782807691070744 28.0785735179195441 22.0151121192701709
 33.7701740134294042 28.0785735179195441 22.0151121192701709
 33.7701740134294042 38.2326268957583721 22.0151121192701709
 33.7701740134294113 48.3866802735971930 22.0151121192701709
 33.7701740134294113 58.5407336514360424 22.0151121192701709
 33.7701740134294042 68.6947870292748490 22.0151121192701709
 33.7701740134294326 78.8488404071136841 22.0151121192701709
 33.7701740134294042 89.0028937849524908 22.0151121192701709
 64.2323341469458882 28.0785735179195477 22.0151121192701709
 43.9242273912682251 28.0785735179195441 22.0151121192701709
 43.9242273912682464 38.2326268957583864 22.0151121192701709
 43.9242273912682464 48.3866802735972144 22.0151121192701709
 43.9242273912682322 58.5407336514360281 22.0151121192701709
 43.9242273912682322 68.6947870292748490 22.0151121192701709
 43.9242273912682464 78.8488404071136699 22.0151121192701709
 43.9242273912682322 89.0028937849524908 22.0151121192701709
 -27.1541462536035212 68.6947870292748490 22.0151121192701709
 54.0782807691070602 38.2326268957583721 22.0151121192701709
 54.0782807691070602 48.3866802735972215 22.0151121192701709
 54.0782807691070531 58.5407336514360281 22.0151121192701709
 54.0782807691070531 68.6947870292748632 22.0151121192701709
 -17.0000928757647003 48.3866802735971788 22.0151121192701709
 64.2323341469458740 38.2326268957583650 22.0151121192701709
 -6.8460394979258927 17.9245201400807268 22.0151121192701709
 -6.8460394979258972 28.0785735179195548 22.0151121192701709
 -17.8463335594534911 58.2053209978717945 20.7795868850820469
 -17.8463335594534875 68.3593743757106296 20.7795868850820469
 12.6158265740629769  7.4350541086777131 20.7795868850820469
 -7.6922801816146649 37.8972142421941598 20.7795868850820469
 -7.6922801816146684 48.0512676200329949 20.7795868850820469
 -7.6922801816146631 58.2053209978718087 20.7795868850820469
 -7.6922801816146595 68.3593743757106296 20.7795868850820469
 -7.6922801816146666 78.5134277535494647 20.7795868850820469
  2.4617731962241520  7.4350541086776847 20.7795868850820469
  2.4617731962241551 17.5891074865165109 20.7795868850820469
  2.4617731962241507 27.7431608643553318 20.7795868850820469
  2.4617731962241596 37.8972142421941598 20.7795868850820469
  2.4617731962241542 48.0512676200329949 20.7795868850820469
  2.4617731962241614 58.2053209978718158 20.7795868850820469
  2.4617731962241578 68.3593743757106296 20.7795868850820469
  2.4617731962241578 78.5134277535494647 20.7795868850820469
 32.9239333297406347 17.5891074865165358 20.7795868850820469
 12.6158265740629805 17.5891074865165109 20.7795868850820469
 12.6158265740629787 27.7431608643553282 20.7795868850820469
 12.6158265740629787 37.8972142421941598 20.7795868850820469
 12.6158265740629716 48.0512676200329807 20.7795868850820469
 12.6158265740629822 58.2053209978718087 20.7795868850820469
 12.6158265740629858 68.3593743757106438 20.7795868850820469
 12.6158265740629609 78.5134277535494789 20.7795868850820469
 12.6158265740629751 88.6674811313882856 20.7795868850820469
 22.7698799519017889 17.5891074865165074 20.7795868850820469
 22.7698799519018067 27.7431608643553318 20.7795868850820469
 22.7698799519017996 37.8972142421941598 20.7795868850820469
 22.7698799519017925 48.0512676200329878 20.7795868850820469
 22.7698799519018031 58.2053209978718087 20.7795868850820469
 22.7698799519017854 68.3593743757106438 20.7795868850820469
 22.7698799519017783 78.5134277535494789 20.7795868850820469
 22.7698799519018031 88.6674811313882856 20.7795868850820469
 53.2320400854182765 27.7431608643553496 20.7795868850820469
 32.9239333297406134 27.7431608643553318 20.7795868850820469
 32.9239333297406134 37.8972142421941527 20.7795868850820469
 32.9239333297406063 48.0512676200329736 20.7795868850820469
 32.9239333297406276 58.2053209978718016 20.7795868850820469
 32.9239333297406205 68.3593743757106438 20.7795868850820469
 32.9239333297406347 78.5134277535494505 20.7795868850820469
 32.9239333297406205 88.6674811313882856 20.7795868850820469
 63.3860934632570832 27.7431608643553531 20.7795868850820469
 43.0779867075794343 27.7431608643553282 20.7795868850820469
 43.0779867075794485 37.8972142421941527 20.7795868850820469
 43.0779867075794414 48.0512676200329949 20.7795868850820469
 43.0779867075794414 58.2053209978718087 20.7795868850820469
 43.0779867075794414 68.3593743757106296 20.7795868850820469
 43.0779867075794414 78.5134277535494505 20.7795868850820469
 43.0779867075794414 88.6674811313882856 20.7795868850820469
 -28.0003869372923191 68.3593743757106438 20.7795868850820469
 53.2320400854182623 37.8972142421941527 20.7795868850820469
 53.2320400854182552 48.0512676200329949 20.7795868850820469
 53.2320400854182694 58.2053209978718087 20.7795868850820469
 53.2320400854182765 68.3593743757106438 20.7795868850820469
 -17.8463335594534804 48.0512676200329807 20.7795868850820469
 63.3860934632570832 37.8972142421941456 20.7795868850820469
 63.3860934632570761 48.0512676200329878 20.7795868850820469
 -7.6922801816146666 27.7431608643553282 20.7795868850820469
 -17.0294075127486089 58.3750281906147848 19.4906790199451798
 -17.0294075127486053 68.5290815684536199 19.4906790199451798
 13.4327526207678662  7.6047613014206785 19.4906790199451798
 -6.8753541349097773 38.0669214349371430 19.4906790199451798
 -6.8753541349097773 48.2209748127759710 19.4906790199451798
 -6.8753541349097826 58.3750281906148132 19.4906790199451798
 -6.8753541349097844 68.5290815684536199 19.4906790199451798
 -6.8753541349097844 78.6831349462924692 19.4906790199451798
  3.2786992429290378  7.6047613014206714 19.4906790199451798
  3.2786992429290418 17.7588146792594976 19.4906790199451798
  3.2786992429290400 27.9128680570983150 19.4906790199451798
  3.2786992429290471 38.0669214349371430 19.4906790199451798
  3.2786992429290400 48.2209748127759639 19.4906790199451798
  3.2786992429290329 58.3750281906148061 19.4906790199451798
  3.2786992429290329 68.5290815684536199 19.4906790199451798
  3.2786992429290436 78.6831349462924550 19.4906790199451798
 33.7408593764455134 17.7588146792594976 19.4906790199451798
 13.4327526207678574 17.7588146792594976 19.4906790199451798
 13.4327526207678680 27.9128680570983221 19.4906790199451798
 13.4327526207678662 38.0669214349371430 19.4906790199451798
 13.4327526207678698 48.2209748127759568 19.4906790199451798
 13.4327526207678680 58.3750281906148132 19.4906790199451798
 13.4327526207678574 68.5290815684536199 19.4906790199451798
 13.4327526207678609 78.6831349462924550 19.4906790199451798
 13.4327526207678716 88.8371883241312759 19.4906790199451798
 23.5868059986066783 17.7588146792594905 19.4906790199451798
 23.5868059986066925 27.9128680570983221 19.4906790199451798
 23.5868059986066925 38.0669214349371430 19.4906790199451798
 23.5868059986066783 48.2209748127759639 19.4906790199451798
 23.5868059986066712 58.3750281906147990 19.4906790199451798
 23.5868059986066747 68.5290815684536199 19.4906790199451798
 23.5868059986066889 78.6831349462924550 19.4906790199451798
 23.5868059986066747 88.8371883241312617 19.4906790199451798
 54.0489661321231623 27.9128680570983327 19.4906790199451798
 33.7408593764454992 27.9128680570983150 19.4906790199451798
 33.7408593764454992 38.0669214349371430 19.4906790199451798
 33.7408593764454992 48.2209748127759639 19.4906790199451798
 33.7408593764455063 58.3750281906148061 19.4906790199451798
 33.7408593764454992 68.5290815684536199 19.4906790199451798
 33.7408593764455134 78.6831349462924265 19.4906790199451798
 33.7408593764455134 88.8371883241312617 19.4906790199451798
 64.2030195099619760 27.9128680570983327 19.4906790199451798
 43.8949127542843200 27.9128680570983185 19.4906790199451798
 43.8949127542843343 38.0669214349371430 19.4906790199451798
 43.8949127542843343 48.2209748127759639 19.4906790199451798
 43.8949127542843343 58.3750281906147990 19.4906790199451798
 43.8949127542843343 68.5290815684536483 19.4906790199451798
 43.8949127542843200 78.6831349462924265 19.4906790199451798
 43.8949127542843343 88.8371883241312617 19.4906790199451798
 -27.1834608905874369 68.5290815684536199 19.4906790199451798
 54.0489661321231480 38.0669214349371359 19.4906790199451798
 54.0489661321231409 48.2209748127759639 19.4906790199451798
 54.0489661321231409 58.3750281906147848 19.4906790199451798
 54.0489661321231409 68.5290815684536199 19.4906790199451798
 -17.0294075127486124 48.2209748127759497 19.4906790199451798
 64.2030195099619903 38.0669214349371288 19.4906790199451798
 -6.8753541349097969 17.7588146792594941 19.4906790199451798
 -6.8753541349097791 27.9128680570983185 19.4906790199451798
 -17.7985239910642328 57.9181453923754788 18.2397930072861207
 -17.7985239910642292 68.0721987702143139 18.2397930072861207
 12.6636361424522441  7.1478785031813628 18.2397930072861207
 -7.6444706132254048 37.6100386366978228 18.2397930072861207
 -7.6444706132254083 47.7640920145366437 18.2397930072861207
 -7.6444706132254030 57.9181453923754788 18.2397930072861207
 -7.6444706132254012 68.0721987702143139 18.2397930072861207
 -7.6444706132254012 78.2262521480531348 18.2397930072861207
  2.5095827646134170  7.1478785031813477 18.2397930072861207
  2.5095827646134188 17.3019318810201703 18.2397930072861207
  2.5095827646134214 27.4559852588589948 18.2397930072861207
  2.5095827646134197 37.6100386366978228 18.2397930072861207
  2.5095827646134197 47.7640920145366508 18.2397930072861207
  2.5095827646134161 57.9181453923754930 18.2397930072861207
  2.5095827646134197 68.0721987702142997 18.2397930072861207
  2.5095827646134232 78.2262521480531348 18.2397930072861207
 32.9717428981298966 17.3019318810201774 18.2397930072861207
 12.6636361424522406 17.3019318810201739 18.2397930072861207
 12.6636361424522441 27.4559852588589983 18.2397930072861207
 12.6636361424522370 37.6100386366978228 18.2397930072861207
 12.6636361424522423 47.7640920145366508 18.2397930072861207
 12.6636361424522477 57.9181453923754788 18.2397930072861207
 12.6636361424522441 68.0721987702143139 18.2397930072861207
 12.6636361424522406 78.2262521480531348 18.2397930072861207
 12.6636361424522441 88.3803055258919414 18.2397930072861207
 22.8176895202910650 17.3019318810201703 18.2397930072861207
 22.8176895202910650 27.4559852588589948 18.2397930072861207
 22.8176895202910615 37.6100386366978228 18.2397930072861207
 22.8176895202910721 47.7640920145366508 18.2397930072861207
 22.8176895202910650 57.9181453923754788 18.2397930072861207
 22.8176895202910686 68.0721987702143139 18.2397930072861207
 22.8176895202910544 78.2262521480531348 18.2397930072861207
 22.8176895202910721 88.3803055258919557 18.2397930072861207
 53.2798496538075526 27.4559852588590019 18.2397930072861207
 32.9717428981298752 27.4559852588589948 18.2397930072861207
 32.9717428981298752 37.6100386366978086 18.2397930072861207
 32.9717428981298752 47.7640920145366437 18.2397930072861207
 32.9717428981298752 57.9181453923754788 18.2397930072861207
 32.9717428981298752 68.0721987702142997 18.2397930072861207
 32.9717428981299037 78.2262521480531063 18.2397930072861207
 32.9717428981298752 88.3803055258919414 18.2397930072861207
 63.4339030316463734 27.4559852588590090 18.2397930072861207
 43.1257962759686961 27.4559852588589877 18.2397930072861207
 43.1257962759687032 37.6100386366978157 18.2397930072861207
 43.1257962759687246 47.7640920145366437 18.2397930072861207
 43.1257962759687103 57.9181453923754788 18.2397930072861207
 43.1257962759687103 68.0721987702142997 18.2397930072861207
 43.1257962759687032 78.2262521480531063 18.2397930072861207
 43.1257962759687317 88.3803055258919557 18.2397930072861207
 -27.9525773689030501 68.0721987702143139 18.2397930072861207
 53.2798496538075383 37.6100386366978299 18.2397930072861207
 53.2798496538075170 47.7640920145366437 18.2397930072861207
 53.2798496538075170 57.9181453923754788 18.2397930072861207
 53.2798496538075170 68.0721987702143139 18.2397930072861207
 -17.7985239910642292 47.7640920145366366 18.2397930072861207
 63.4339030316463379 37.6100386366978086 18.2397930072861207
 63.4339030316463521 47.7640920145366437 18.2397930072861207
 -7.6444706132254137 27.4559852588590019 18.2397930072861207
 -18.9252126682513691 58.8009697745972204 17.9310013491914546
 -18.9252126682513762 68.9550231524360413 17.9310013491914546
 11.5369474652651007  8.0307028854031088 17.9310013491914546
 -8.7711592904125499 38.4928630189195715 17.9310013491914546
 -8.7711592904125588 48.6469163967584137 17.9310013491914546
 -8.7711592904125446 58.8009697745972204 17.9310013491914546
 -8.7711592904125482 68.9550231524360413 17.9310013491914546
 -8.7711592904125482 79.1090765302748764 17.9310013491914546
  1.3828940874262705  8.0307028854030982 17.9310013491914546
  1.3828940874262710 18.1847562632419262 17.9310013491914546
  1.3828940874262727 28.3388096410807471 17.9310013491914546
  1.3828940874262710 38.4928630189195715 17.9310013491914546
  1.3828940874262727 48.6469163967584137 17.9310013491914546
  1.3828940874262727 58.8009697745972204 17.9310013491914546
  1.3828940874262692 68.9550231524360413 17.9310013491914546
  1.3828940874262763 79.1090765302748764 17.9310013491914546
 31.8450542209427425 18.1847562632419439 17.9310013491914546
 11.5369474652651007 18.1847562632419262 17.9310013491914546
 11.5369474652650954 28.3388096410807542 17.9310013491914546
 11.5369474652650901 38.4928630189195715 17.9310013491914546
 11.5369474652650919 48.6469163967583995 17.9310013491914546
 11.5369474652650972 58.8009697745972204 17.9310013491914546
 11.5369474652650936 68.9550231524360413 17.9310013491914546
 11.5369474652650901 79.1090765302748764 17.9310013491914546
 41.9991075987815847 18.1847562632419510 17.9310013491914546
 21.6910008431039110 18.1847562632419226 17.9310013491914546
 21.6910008431039181 28.3388096410807506 17.9310013491914546
 21.6910008431039145 38.4928630189195715 17.9310013491914546
 21.6910008431039145 48.6469163967583995 17.9310013491914546
 21.6910008431039110 58.8009697745972204 17.9310013491914546
 21.6910008431039039 68.9550231524360413 17.9310013491914546
 21.6910008431039003 79.1090765302748764 17.9310013491914546
 21.6910008431039181 89.2631299081136973 17.9310013491914546
 52.1531609766203914 28.3388096410807613 17.9310013491914546
 31.8450542209427283 28.3388096410807435 17.9310013491914546
 31.8450542209427390 38.4928630189195644 17.9310013491914546
 31.8450542209427425 48.6469163967583853 17.9310013491914546
 31.8450542209427496 58.8009697745972346 17.9310013491914546
 31.8450542209427425 68.9550231524360413 17.9310013491914546
 31.8450542209427390 79.1090765302748764 17.9310013491914546
 31.8450542209427354 89.2631299081137257 17.9310013491914546
 62.3072143544591981 28.3388096410807648 17.9310013491914546
 41.9991075987815634 28.3388096410807471 17.9310013491914546
 41.9991075987815634 38.4928630189195644 17.9310013491914546
 41.9991075987815776 48.6469163967583995 17.9310013491914546
 41.9991075987815634 58.8009697745972204 17.9310013491914546
 41.9991075987815634 68.9550231524360413 17.9310013491914546
 41.9991075987815634 79.1090765302748622 17.9310013491914546
 41.9991075987815918 89.2631299081137115 17.9310013491914546
 -29.0792660460902077 68.9550231524360555 17.9310013491914546
 52.1531609766203843 38.4928630189195644 17.9310013491914546
 52.1531609766203701 48.6469163967583995 17.9310013491914546
 52.1531609766204127 58.8009697745972204 17.9310013491914546
 52.1531609766203843 68.9550231524360413 17.9310013491914546
 -18.9252126682513726 48.6469163967584137 17.9310013491914546
 62.3072143544591910 38.4928630189195644 17.9310013491914546
 62.3072143544591981 48.6469163967583853 17.9310013491914546
 -8.7711592904125499 28.3388096410807542 17.9310013491914546
 -17.1788161309646945 58.6231629408543355 24.0630389682395815
 -17.1788161309646945 68.7772163186931778 24.0630389682395815
 13.2833440025517717  7.8528960516602382 24.0630389682395815
 -7.0247627531258745 38.3150561851766938 24.0630389682395815
 -7.0247627531258718 48.4691095630155147 24.0630389682395815
 -7.0247627531258807 58.6231629408543569 24.0630389682395815
 -7.0247627531258701 68.7772163186931635 24.0630389682395815
 -7.0247627531258772 78.9312696965320129 24.0630389682395815
  3.1292906247129442  7.8528960516602195 24.0630389682395815
  3.1292906247129464 18.0069494294990484 24.0630389682395815
  3.1292906247129437 28.1610028073378729 24.0630389682395815
  3.1292906247129526 38.3150561851767009 24.0630389682395815
  3.1292906247129473 48.4691095630155147 24.0630389682395815
  3.1292906247129508 58.6231629408543498 24.0630389682395815
  3.1292906247129544 68.7772163186931635 24.0630389682395815
  3.1292906247129437 78.9312696965320129 24.0630389682395815
 33.5914507582294135 18.0069494294990733 24.0630389682395815
 13.2833440025517682 18.0069494294990449 24.0630389682395815
 13.2833440025517664 28.1610028073378729 24.0630389682395815
 13.2833440025517717 38.3150561851767009 24.0630389682395815
 13.2833440025517682 48.4691095630155218 24.0630389682395815
 13.2833440025517682 58.6231629408543427 24.0630389682395815
 13.2833440025517788 68.7772163186931635 24.0630389682395815
 13.2833440025517575 78.9312696965320129 24.0630389682395815
 13.2833440025517753 89.0853230743708338 24.0630389682395815
 23.4373973803905855 18.0069494294990413 24.0630389682395815
 23.4373973803905997 28.1610028073378729 24.0630389682395815
 23.4373973803905926 38.3150561851767009 24.0630389682395815
 23.4373973803905997 48.4691095630155075 24.0630389682395815
 23.4373973803905926 58.6231629408543569 24.0630389682395815
 23.4373973803905855 68.7772163186931635 24.0630389682395815
 23.4373973803905784 78.9312696965319986 24.0630389682395815
 23.4373973803905784 89.0853230743708195 24.0630389682395815
 53.8995575139070766 28.1610028073378942 24.0630389682395815
 33.5914507582294064 28.1610028073378729 24.0630389682395815
 33.5914507582294064 38.3150561851766867 24.0630389682395815
 33.5914507582293993 48.4691095630155075 24.0630389682395815
 33.5914507582294135 58.6231629408543498 24.0630389682395815
 33.5914507582294135 68.7772163186931778 24.0630389682395815
 33.5914507582294277 78.9312696965319844 24.0630389682395815
 33.5914507582294064 89.0853230743708338 24.0630389682395815
 64.0536108917458762 28.1610028073378906 24.0630389682395815
 43.7455041360682273 28.1610028073378658 24.0630389682395815
 43.7455041360682415 38.3150561851766867 24.0630389682395815
 43.7455041360682486 48.4691095630155218 24.0630389682395815
 43.7455041360682344 58.6231629408543427 24.0630389682395815
 43.7455041360682344 68.7772163186931635 24.0630389682395815
 43.7455041360682344 78.9312696965319844 24.0630389682395815
 43.7455041360682486 89.0853230743708338 24.0630389682395815
 -27.3328695088035225 68.7772163186931920 24.0630389682395815
 53.8995575139070553 38.3150561851766867 24.0630389682395815
 53.8995575139070624 48.4691095630155147 24.0630389682395815
 53.8995575139070624 58.6231629408543498 24.0630389682395815
 53.8995575139070553 68.7772163186931778 24.0630389682395815
 -17.1788161309646839 48.4691095630155218 24.0630389682395815
 64.0536108917458762 38.3150561851766867 24.0630389682395815
 -7.0247627531258914 18.0069494294990484 24.0630389682395815
 -7.0247627531258914 28.1610028073378658 24.0630389682395815
 -18.6009429576552989 59.0414108508533531 23.2280548490837937
 -18.6009429576552918 69.1954642286921739 23.2280548490837937
 11.8612171758611762  8.2711439616592362 23.2280548490837937
 -8.4468895798164727 38.7333040951757042 23.2280548490837937
 -8.4468895798164763 48.8873574730145180 23.2280548490837937
 -8.4468895798164763 59.0414108508533531 23.2280548490837937
 -8.4468895798164709 69.1954642286921882 23.2280548490837937
 -8.4468895798164709 79.3495176065310091 23.2280548490837937
  1.7071637980223464  8.2711439616592237 23.2280548490837937
  1.7071637980223464 18.4251973394980517 23.2280548490837937
  1.7071637980223464 28.5792507173368726 23.2280548490837937
  1.7071637980223500 38.7333040951756971 23.2280548490837937
  1.7071637980223535 48.8873574730145251 23.2280548490837937
  1.7071637980223429 59.0414108508533531 23.2280548490837937
  1.7071637980223571 69.1954642286921739 23.2280548490837937
  1.7071637980223464 79.3495176065309948 23.2280548490837937
 32.1693239315388126 18.4251973394980695 23.2280548490837937
 11.8612171758611709 18.4251973394980482 23.2280548490837937
 11.8612171758611709 28.5792507173368797 23.2280548490837937
 11.8612171758611780 38.7333040951756971 23.2280548490837937
 11.8612171758611673 48.8873574730145322 23.2280548490837937
 11.8612171758611709 59.0414108508533673 23.2280548490837937
 11.8612171758611780 69.1954642286921739 23.2280548490837937
 11.8612171758611673 79.3495176065310091 23.2280548490837937
 42.3233773093776406 18.4251973394980766 23.2280548490837937
 22.0152705536999918 18.4251973394980482 23.2280548490837937
 22.0152705537000024 28.5792507173368762 23.2280548490837937
 22.0152705536999918 38.7333040951756971 23.2280548490837937
 22.0152705537000060 48.8873574730145251 23.2280548490837937
 22.0152705536999882 59.0414108508533531 23.2280548490837937
 22.0152705536999918 69.1954642286922024 23.2280548490837937
 22.0152705536999918 79.3495176065310091 23.2280548490837937
 22.0152705536999989 89.5035709843698584 23.2280548490837937
 52.4774306872164544 28.5792507173368833 23.2280548490837937
 32.1693239315388055 28.5792507173368691 23.2280548490837937
 32.1693239315388126 38.7333040951756971 23.2280548490837937
 32.1693239315388126 48.8873574730145180 23.2280548490837937
 32.1693239315388126 59.0414108508533531 23.2280548490837937
 32.1693239315388055 69.1954642286921739 23.2280548490837937
 32.1693239315388126 79.3495176065309806 23.2280548490837937
 32.1693239315387984 89.5035709843698157 23.2280548490837937
 62.6314840650552895 28.5792507173368939 23.2280548490837937
 42.3233773093776264 28.5792507173368691 23.2280548490837937
 42.3233773093776264 38.7333040951756971 23.2280548490837937
 42.3233773093776477 48.8873574730145180 23.2280548490837937
 42.3233773093776335 59.0414108508533531 23.2280548490837937
 42.3233773093776477 69.1954642286921739 23.2280548490837937
 42.3233773093776335 79.3495176065309806 23.2280548490837937
 42.3233773093776477 89.5035709843698157 23.2280548490837937
 -28.7549963354941163 69.1954642286921739 23.2280548490837937
 52.4774306872164615 38.7333040951757113 23.2280548490837937
 52.4774306872164473 48.8873574730145180 23.2280548490837937
 52.4774306872164544 59.0414108508533531 23.2280548490837937
 52.4774306872164544 69.1954642286921739 23.2280548490837937
 -18.6009429576552918 48.8873574730145108 23.2280548490837937
 62.6314840650552682 38.7333040951756828 23.2280548490837937
 62.6314840650552611 48.8873574730145180 23.2280548490837937
 -8.4468895798164851 28.5792507173368726 23.2280548490837937
 -18.1163694241095854 57.4035559667064348 23.3360889213816343
 -18.1163694241095854 67.5576093445452699 23.3360889213816343
 12.3457907094068897  6.6332890775123463 23.3360889213816343
 -7.9623160462707609 37.0954492110287930 23.3360889213816343
 -7.9623160462707627 47.2495025888676210 23.3360889213816343
 -7.9623160462707538 57.4035559667064490 23.3360889213816343
 -7.9623160462707538 67.5576093445452699 23.3360889213816343
 -7.9623160462707574 77.7116627223841050 23.3360889213816343
  2.1917373315680608  6.6332890775123241 23.3360889213816343
  2.1917373315680599 16.7873424553511512 23.3360889213816343
  2.1917373315680635 26.9413958331899757 23.3360889213816343
  2.1917373315680635 37.0954492110288001 23.3360889213816343
  2.1917373315680670 47.2495025888676210 23.3360889213816343
  2.1917373315680599 57.4035559667064490 23.3360889213816343
  2.1917373315680635 67.5576093445452699 23.3360889213816343
  2.1917373315680742 77.7116627223841050 23.3360889213816343
 32.6538974650845262 16.7873424553511796 23.3360889213816343
 12.3457907094068862 16.7873424553511512 23.3360889213816343
 12.3457907094068808 26.9413958331899721 23.3360889213816343
 12.3457907094068808 37.0954492110288001 23.3360889213816343
 12.3457907094068826 47.2495025888676352 23.3360889213816343
 12.3457907094068915 57.4035559667064490 23.3360889213816343
 12.3457907094068844 67.5576093445452699 23.3360889213816343
 12.3457907094068879 77.7116627223841050 23.3360889213816343
 12.3457907094068879 87.8657161002229259 23.3360889213816343
 22.4998440872457017 16.7873424553511548 23.3360889213816343
 22.4998440872457124 26.9413958331899792 23.3360889213816343
 22.4998440872457053 37.0954492110288001 23.3360889213816343
 22.4998440872457053 47.2495025888676352 23.3360889213816343
 22.4998440872457088 57.4035559667064490 23.3360889213816343
 22.4998440872457088 67.5576093445452699 23.3360889213816343
 22.4998440872457195 77.7116627223841192 23.3360889213816343
 22.4998440872457017 87.8657161002229259 23.3360889213816343
 52.9620042207621751 26.9413958331900005 23.3360889213816343
 32.6538974650845120 26.9413958331899828 23.3360889213816343
 32.6538974650845262 37.0954492110287930 23.3360889213816343
 32.6538974650845262 47.2495025888676139 23.3360889213816343
 32.6538974650845475 57.4035559667064490 23.3360889213816343
 32.6538974650845262 67.5576093445452699 23.3360889213816343
 32.6538974650845262 77.7116627223840908 23.3360889213816343
 32.6538974650845333 87.8657161002229259 23.3360889213816343
 32.6538974650845475 98.0197694780617610 23.3360889213816343
 42.8079508429233471 26.9413958331899757 23.3360889213816343
 42.8079508429233542 37.0954492110287930 23.3360889213816343
 42.8079508429233684 47.2495025888676281 23.3360889213816343
 42.8079508429233684 57.4035559667064561 23.3360889213816343
 42.8079508429233471 67.5576093445452841 23.3360889213816343
 42.8079508429233471 77.7116627223840908 23.3360889213816343
 42.8079508429233613 87.8657161002229259 23.3360889213816343
 -28.2704228019484027 67.5576093445452841 23.3360889213816343
 52.9620042207621822 37.0954492110288001 23.3360889213816343
 52.9620042207621680 47.2495025888676352 23.3360889213816343
 52.9620042207621893 57.4035559667064490 23.3360889213816343
 52.9620042207621822 67.5576093445452841 23.3360889213816343
 -18.1163694241095641 47.2495025888676281 23.3360889213816343
 63.1160575986009889 37.0954492110287859 23.3360889213816343
 63.1160575986009889 47.2495025888676139 23.3360889213816343
 -7.9623160462707663 26.9413958331899686 23.3360889213816343
 -16.1177026949241053 57.8639082128407694 22.0578739937673376
 -16.1177026949241053 68.0179615906795902 22.0578739937673376
 14.3444574385923662  7.0936413236466613 22.0578739937673376
 -5.9636493170852880 37.5558014571631276 22.0578739937673376
 -5.9636493170852880 47.7098548350019556 22.0578739937673376
 -5.9636493170852827 57.8639082128407694 22.0578739937673376
 -5.9636493170852880 68.0179615906795902 22.0578739937673376
 -5.9636493170852880 78.1720149685184253 22.0578739937673376
  4.1904040607535347  7.0936413236466462 22.0578739937673376
  4.1904040607535356 17.2476947014854787 22.0578739937673376
  4.1904040607535382 27.4017480793242960 22.0578739937673376
  4.1904040607535400 37.5558014571631276 22.0578739937673376
  4.1904040607535364 47.7098548350019556 22.0578739937673376
  4.1904040607535364 57.8639082128407694 22.0578739937673376
  4.1904040607535364 68.0179615906795902 22.0578739937673376
  4.1904040607535364 78.1720149685184538 22.0578739937673376
 34.6525641942700133 17.2476947014854787 22.0578739937673376
 14.3444574385923573 17.2476947014854716 22.0578739937673376
 14.3444574385923609 27.4017480793243031 22.0578739937673376
 14.3444574385923556 37.5558014571631205 22.0578739937673376
 14.3444574385923609 47.7098548350019485 22.0578739937673376
 14.3444574385923680 57.8639082128407765 22.0578739937673376
 14.3444574385923538 68.0179615906795902 22.0578739937673376
 14.3444574385923502 78.1720149685184253 22.0578739937673376
 14.3444574385923751 88.3260683463572462 22.0578739937673376
 24.4985108164311853 17.2476947014854751 22.0578739937673376
 24.4985108164311818 27.4017480793243031 22.0578739937673376
 24.4985108164311818 37.5558014571631276 22.0578739937673376
 24.4985108164311853 47.7098548350019556 22.0578739937673376
 24.4985108164311782 57.8639082128407694 22.0578739937673376
 24.4985108164311924 68.0179615906795902 22.0578739937673376
 24.4985108164311711 78.1720149685184253 22.0578739937673376
 24.4985108164311676 88.3260683463572320 22.0578739937673376
 54.9606709499476551 27.4017480793243102 22.0578739937673376
 34.6525641942699991 27.4017480793242996 22.0578739937673376
 34.6525641942700133 37.5558014571631134 22.0578739937673376
 34.6525641942699991 47.7098548350019342 22.0578739937673376
 34.6525641942700133 57.8639082128407836 22.0578739937673376
 34.6525641942700133 68.0179615906795902 22.0578739937673376
 34.6525641942700133 78.1720149685184253 22.0578739937673376
 34.6525641942699991 88.3260683463572462 22.0578739937673376
 34.6525641942699849 98.4801217241960956 22.0578739937673376
 44.8066175721088413 27.4017480793242960 22.0578739937673376
 44.8066175721088271 37.5558014571631134 22.0578739937673376
 44.8066175721088342 47.7098548350019414 22.0578739937673376
 44.8066175721088271 57.8639082128407694 22.0578739937673376
 44.8066175721088200 68.0179615906795902 22.0578739937673376
 44.8066175721088342 78.1720149685184253 22.0578739937673376
 44.8066175721088200 88.3260683463572462 22.0578739937673376
 -26.2717560727629511 68.0179615906796045 22.0578739937673376
 54.9606709499476622 37.5558014571631134 22.0578739937673376
 54.9606709499476409 47.7098548350019485 22.0578739937673376
 54.9606709499476622 57.8639082128407694 22.0578739937673376
 54.9606709499476764 68.0179615906796045 22.0578739937673376
 -16.1177026949241124 47.7098548350019627 22.0578739937673376
 65.1147243277864760 37.5558014571631134 22.0578739937673376
 -5.9636493170853182 17.2476947014854609 22.0578739937673376
 -5.9636493170853040 27.4017480793243031 22.0578739937673376
 -16.6316631056736526 59.5882718705358627 21.9406733613767031
 -16.6316631056736561 69.7423252483747120 21.9406733613767031
 13.8304970278428137  8.8180049813417529 21.9406733613767031
 -6.4776097278348388 39.2801651148582067 21.9406733613767031
 -6.4776097278348388 49.4342184926970347 21.9406733613767031
 -6.4776097278348317 59.5882718705358627 21.9406733613767031
 -6.4776097278348388 69.7423252483746836 21.9406733613767031
 -6.4776097278348317 79.8963786262135187 21.9406733613767031
  3.6764436500039857  8.8180049813417387 21.9406733613767031
  3.6764436500039857 18.9720583591805614 21.9406733613767031
  3.6764436500039839 29.1261117370193929 21.9406733613767031
  3.6764436500039839 39.2801651148582067 21.9406733613767031
  3.6764436500039857 49.4342184926970489 21.9406733613767031
  3.6764436500039892 59.5882718705358627 21.9406733613767031
  3.6764436500039928 69.7423252483746836 21.9406733613767031
  3.6764436500039892 79.8963786262135187 21.9406733613767031
 34.1386037835204519 18.9720583591805863 21.9406733613767031
 13.8304970278428172 18.9720583591805649 21.9406733613767031
 13.8304970278428048 29.1261117370193858 21.9406733613767031
 13.8304970278428030 39.2801651148582067 21.9406733613767031
 13.8304970278428065 49.4342184926970489 21.9406733613767031
 13.8304970278428172 59.5882718705358698 21.9406733613767031
 13.8304970278428030 69.7423252483746836 21.9406733613767031
 13.8304970278428030 79.8963786262135045 21.9406733613767031
 13.8304970278428101 90.0504320040523396 21.9406733613767031
 23.9845504056816239 18.9720583591805578 21.9406733613767031
 23.9845504056816310 29.1261117370193858 21.9406733613767031
 23.9845504056816310 39.2801651148582067 21.9406733613767031
 23.9845504056816452 49.4342184926970418 21.9406733613767031
 23.9845504056816239 59.5882718705358627 21.9406733613767031
 23.9845504056816239 69.7423252483746836 21.9406733613767031
 23.9845504056816239 79.8963786262135045 21.9406733613767031
 23.9845504056816274 90.0504320040523680 21.9406733613767031
 54.4467105391981079 29.1261117370193929 21.9406733613767031
 34.1386037835204448 29.1261117370193823 21.9406733613767031
 34.1386037835204377 39.2801651148582138 21.9406733613767031
 34.1386037835204448 49.4342184926970276 21.9406733613767031
 34.1386037835204519 59.5882718705358627 21.9406733613767031
 34.1386037835204590 69.7423252483746836 21.9406733613767031
 34.1386037835204519 79.8963786262135187 21.9406733613767031
 34.1386037835204661 90.0504320040523680 21.9406733613767031
 64.6007639170369146 29.1261117370193929 21.9406733613767031
 44.2926571613592657 29.1261117370193894 21.9406733613767031
 44.2926571613592728 39.2801651148582067 21.9406733613767031
 44.2926571613592799 49.4342184926970276 21.9406733613767031
 44.2926571613592799 59.5882718705358698 21.9406733613767031
 44.2926571613592870 69.7423252483746978 21.9406733613767031
 44.2926571613592870 79.8963786262135187 21.9406733613767031
 44.2926571613592728 90.0504320040523680 21.9406733613767031
 -26.7857164835124841 69.7423252483746694 21.9406733613767031
 54.4467105391980937 39.2801651148582067 21.9406733613767031
 54.4467105391981008 49.4342184926970418 21.9406733613767031
 54.4467105391980937 59.5882718705358627 21.9406733613767031
 -16.6316631056736526 39.2801651148582138 21.9406733613767031
 -16.6316631056736703 49.4342184926970418 21.9406733613767031
 64.6007639170369288 39.2801651148582067 21.9406733613767031
 -6.4776097278348672 18.9720583591805578 21.9406733613767031
 -6.4776097278348379 29.1261117370193929 21.9406733613767031
 -18.7274277988057136 58.8814175176813848 20.7560040116677591
 -18.7274277988057243 69.0354708955202057 20.7560040116677591
 11.7347323347107491  8.1111506284872803 20.7560040116677591
 -8.5733744209668981 38.5733107620037430 20.7560040116677591
 -8.5733744209669034 48.7273641398425852 20.7560040116677591
 -8.5733744209668945 58.8814175176813990 20.7560040116677591
 -8.5733744209668927 69.0354708955202057 20.7560040116677591
 -8.5733744209669034 79.1895242733590408 20.7560040116677591
  1.5806789568719211  8.1111506284872643 20.7560040116677591
  1.5806789568719237 18.2652040063260870 20.7560040116677591
  1.5806789568719246 28.4192573841649150 20.7560040116677591
  1.5806789568719264 38.5733107620037430 20.7560040116677591
  1.5806789568719211 48.7273641398425639 20.7560040116677591
  1.5806789568719175 58.8814175176814061 20.7560040116677591
  1.5806789568719282 69.0354708955202057 20.7560040116677591
  1.5806789568719317 79.1895242733590408 20.7560040116677591
 32.0428390903883979 18.2652040063261012 20.7560040116677591
 11.7347323347107508 18.2652040063260870 20.7560040116677591
 11.7347323347107491 28.4192573841649185 20.7560040116677591
 11.7347323347107473 38.5733107620037359 20.7560040116677591
 11.7347323347107402 48.7273641398425852 20.7560040116677591
 11.7347323347107491 58.8814175176813919 20.7560040116677591
 11.7347323347107562 69.0354708955202057 20.7560040116677591
 11.7347323347107313 79.1895242733590550 20.7560040116677591
 42.1968924682272188 18.2652040063261012 20.7560040116677591
 21.8887857125495628 18.2652040063260870 20.7560040116677591
 21.8887857125495771 28.4192573841649221 20.7560040116677591
 21.8887857125495700 38.5733107620037430 20.7560040116677591
 21.8887857125495771 48.7273641398425781 20.7560040116677591
 21.8887857125495628 58.8814175176813848 20.7560040116677591
 21.8887857125495557 69.0354708955202057 20.7560040116677591
 21.8887857125495557 79.1895242733590408 20.7560040116677591
 21.8887857125495700 89.3435776511978759 20.7560040116677591
 52.3509458460660397 28.4192573841649292 20.7560040116677591
 32.0428390903883837 28.4192573841649079 20.7560040116677591
 32.0428390903883979 38.5733107620037359 20.7560040116677591
 32.0428390903883979 48.7273641398425710 20.7560040116677591
 32.0428390903884122 58.8814175176813919 20.7560040116677591
 32.0428390903883979 69.0354708955202057 20.7560040116677591
 32.0428390903884051 79.1895242733590266 20.7560040116677591
 32.0428390903884122 89.3435776511978759 20.7560040116677591
 62.5049992239048535 28.4192573841649327 20.7560040116677591
 42.1968924682272046 28.4192573841649079 20.7560040116677591
 42.1968924682272259 38.5733107620037430 20.7560040116677591
 42.1968924682272188 48.7273641398425639 20.7560040116677591
 42.1968924682272046 58.8814175176813990 20.7560040116677591
 42.1968924682272117 69.0354708955202057 20.7560040116677591
 42.1968924682272046 79.1895242733590266 20.7560040116677591
 42.1968924682272188 89.3435776511978617 20.7560040116677591
 -28.8814811766445523 69.0354708955202199 20.7560040116677591
 52.3509458460660326 38.5733107620037501 20.7560040116677591
 52.3509458460660255 48.7273641398425639 20.7560040116677591
 52.3509458460660397 58.8814175176813990 20.7560040116677591
 52.3509458460660468 69.0354708955202057 20.7560040116677591
 -18.7274277988057101 48.7273641398425568 20.7560040116677591
 62.5049992239048393 38.5733107620037359 20.7560040116677591
 62.5049992239048322 48.7273641398425710 20.7560040116677591
 -8.5733744209668998 28.4192573841649221 20.7560040116677591
 -18.2049785816332736 57.1555143698430399 20.8567184782760293
 -18.2049785816332808 67.3095677476818537 20.8567184782760293
 12.2571815518831890  6.3852474806489337 20.8567184782760293
 -8.0509252037944528 36.8474076141653839 20.8567184782760293
 -8.0509252037944528 47.0014609920042048 20.8567184782760293
 -8.0509252037944510 57.1555143698430399 20.8567184782760293
 -8.0509252037944492 67.3095677476818537 20.8567184782760293
 -8.0509252037944563 77.4636211255206888 20.8567184782760293
  2.1031281740443659  6.3852474806489106 20.8567184782760293
  2.1031281740443672 16.5393008584877350 20.8567184782760293
  2.1031281740443664 26.6933542363265630 20.8567184782760293
  2.1031281740443699 36.8474076141653910 20.8567184782760293
  2.1031281740443717 47.0014609920041977 20.8567184782760293
  2.1031281740443681 57.1555143698430328 20.8567184782760293
  2.1031281740443717 67.3095677476818537 20.8567184782760293
  2.1031281740443752 77.4636211255206888 20.8567184782760293
 32.5652883075608344 16.5393008584877492 20.8567184782760293
 12.2571815518831890 16.5393008584877350 20.8567184782760293
 12.2571815518831926 26.6933542363265630 20.8567184782760293
 12.2571815518831890 36.8474076141653910 20.8567184782760293
 12.2571815518831944 47.0014609920042048 20.8567184782760293
 12.2571815518831961 57.1555143698430328 20.8567184782760293
 12.2571815518831961 67.3095677476818537 20.8567184782760293
 12.2571815518831926 77.4636211255206888 20.8567184782760293
 12.2571815518831926 87.6176745033595097 20.8567184782760293
 22.4112349297220135 16.5393008584877350 20.8567184782760293
 22.4112349297220135 26.6933542363265666 20.8567184782760293
 22.4112349297220135 36.8474076141653981 20.8567184782760293
 22.4112349297220206 47.0014609920042048 20.8567184782760293
 22.4112349297220099 57.1555143698430399 20.8567184782760293
 22.4112349297220135 67.3095677476818537 20.8567184782760293
 22.4112349297220135 77.4636211255206888 20.8567184782760293
 22.4112349297220064 87.6176745033595097 20.8567184782760293
 52.8733950632384762 26.6933542363265701 20.8567184782760293
 32.5652883075608344 26.6933542363265559 20.8567184782760293
 32.5652883075608273 36.8474076141653910 20.8567184782760293
 32.5652883075608344 47.0014609920041977 20.8567184782760293
 32.5652883075608344 57.1555143698430399 20.8567184782760293
 32.5652883075608415 67.3095677476818537 20.8567184782760293
 32.5652883075608344 77.4636211255206746 20.8567184782760293
 32.5652883075608344 87.6176745033595097 20.8567184782760293
 32.5652883075608415 97.7717278811983306 20.8567184782760293
 42.7193416853996482 26.6933542363265559 20.8567184782760293
 42.7193416853996482 36.8474076141653839 20.8567184782760293
 42.7193416853996695 47.0014609920042119 20.8567184782760293
 42.7193416853996624 57.1555143698430328 20.8567184782760293
 42.7193416853996553 67.3095677476818537 20.8567184782760293
 42.7193416853996837 77.4636211255206888 20.8567184782760293
 42.7193416853996553 87.6176745033595097 20.8567184782760293
 -28.3590319594721052 67.3095677476818821 20.8567184782760293
 52.8733950632384833 36.8474076141653768 20.8567184782760293
 52.8733950632384833 47.0014609920042119 20.8567184782760293
 52.8733950632384762 57.1555143698430328 20.8567184782760293
 52.8733950632384762 67.3095677476818537 20.8567184782760293
 -18.2049785816332843 47.0014609920042190 20.8567184782760293
 63.0274484410772899 36.8474076141653697 20.8567184782760293
 63.0274484410773042 47.0014609920041977 20.8567184782760293
 -8.0509252037944616 26.6933542363265595 20.8567184782760293
 -16.1041497483887852 57.7626353223868563 19.5663785222018127
 -16.1041497483887852 67.9166887002256772 19.5663785222018127
 14.3580103851276881  6.9923684331927376 19.5663785222018127
 -5.9500963705499608 37.4545285667092003 19.5663785222018127
 -5.9500963705499625 47.6085819445480212 19.5663785222018127
 -5.9500963705499661 57.7626353223868563 19.5663785222018127
 -5.9500963705499608 67.9166887002256772 19.5663785222018127
 -5.9500963705499572 78.0707420780645123 19.5663785222018127
  4.2039570072888583  6.9923684331927269 19.5663785222018127
  4.2039570072888592 17.1464218110315514 19.5663785222018127
  4.2039570072888583 27.3004751888703758 19.5663785222018127
  4.2039570072888637 37.4545285667092074 19.5663785222018127
  4.2039570072888672 47.6085819445480354 19.5663785222018127
  4.2039570072888601 57.7626353223868563 19.5663785222018127
  4.2039570072888601 67.9166887002256772 19.5663785222018127
  4.2039570072888601 78.0707420780645123 19.5663785222018127
 34.6661171408053264 17.1464218110315727 19.5663785222018127
 14.3580103851276775 17.1464218110315514 19.5663785222018127
 14.3580103851276863 27.3004751888703794 19.5663785222018127
 14.3580103851276863 37.4545285667092003 19.5663785222018127
 14.3580103851276846 47.6085819445480283 19.5663785222018127
 14.3580103851276810 57.7626353223868563 19.5663785222018127
 14.3580103851276775 67.9166887002256772 19.5663785222018127
 14.3580103851276810 78.0707420780645123 19.5663785222018127
 14.3580103851276917 88.2247954559033332 19.5663785222018127
 24.5120637629665055 17.1464218110315514 19.5663785222018127
 24.5120637629665126 27.3004751888703829 19.5663785222018127
 24.5120637629665019 37.4545285667092003 19.5663785222018127
 24.5120637629665126 47.6085819445480212 19.5663785222018127
 24.5120637629664948 57.7626353223868563 19.5663785222018127
 24.5120637629664948 67.9166887002256772 19.5663785222018127
 24.5120637629664948 78.0707420780644981 19.5663785222018127
 24.5120637629664877 88.2247954559033190 19.5663785222018127
 54.9742238964829752 27.3004751888703865 19.5663785222018127
 34.6661171408053193 27.3004751888703723 19.5663785222018127
 34.6661171408053121 37.4545285667091932 19.5663785222018127
 34.6661171408053193 47.6085819445480141 19.5663785222018127
 34.6661171408053264 57.7626353223868563 19.5663785222018127
 34.6661171408053193 67.9166887002256772 19.5663785222018127
 34.6661171408053477 78.0707420780644838 19.5663785222018127
 34.6661171408053264 88.2247954559033332 19.5663785222018127
 34.6661171408053264 98.3788488337421398 19.5663785222018127
 44.8201705186441330 27.3004751888703723 19.5663785222018127
 44.8201705186441473 37.4545285667092003 19.5663785222018127
 44.8201705186441686 47.6085819445480212 19.5663785222018127
 44.8201705186441473 57.7626353223868563 19.5663785222018127
 44.8201705186441401 67.9166887002256772 19.5663785222018127
 44.8201705186441615 78.0707420780644838 19.5663785222018127
 44.8201705186441615 88.2247954559033474 19.5663785222018127
 -26.2582031262276132 67.9166887002256772 19.5663785222018127
 54.9742238964829681 37.4545285667091932 19.5663785222018127
 54.9742238964829752 47.6085819445480212 19.5663785222018127
 54.9742238964829752 57.7626353223868492 19.5663785222018127
 54.9742238964829681 67.9166887002256772 19.5663785222018127
 -16.1041497483887710 47.6085819445480141 19.5663785222018127
 65.1282772743217890 37.4545285667091861 19.5663785222018127
 -5.9500963705499759 17.1464218110315443 19.5663785222018127
 -5.9500963705499661 27.3004751888703865 19.5663785222018127
 -16.7225057742520846 59.4375558734367075 19.3748777124380496
 -16.7225057742520846 69.5916092512755142 19.3748777124380496
 13.7396543592643887  8.6672889842425924 19.3748777124380496
 -6.5684523964132584 39.1294491177590515 19.3748777124380496
 -6.5684523964132531 49.2835024955978724 19.3748777124380496
 -6.5684523964132637 59.4375558734367004 19.3748777124380496
 -6.5684523964132566 69.5916092512755284 19.3748777124380496
 -6.5684523964132637 79.7456626291143493 19.3748777124380496
  3.5856009814255598  8.6672889842425747 19.3748777124380496
  3.5856009814255598 18.8213423620814027 19.3748777124380496
  3.5856009814255589 28.9753957399202235 19.3748777124380496
  3.5856009814255660 39.1294491177590515 19.3748777124380496
  3.5856009814255678 49.2835024955978795 19.3748777124380496
  3.5856009814255501 59.4375558734367004 19.3748777124380496
  3.5856009814255678 69.5916092512755284 19.3748777124380496
  3.5856009814255572 79.7456626291143493 19.3748777124380496
 34.0477611149420341 18.8213423620814275 19.3748777124380496
 13.7396543592643869 18.8213423620814027 19.3748777124380496
 13.7396543592643816 28.9753957399202271 19.3748777124380496
 13.7396543592643816 39.1294491177590515 19.3748777124380496
 13.7396543592643834 49.2835024955978724 19.3748777124380496
 13.7396543592643887 59.4375558734367075 19.3748777124380496
 13.7396543592643781 69.5916092512755142 19.3748777124380496
 13.7396543592643816 79.7456626291143493 19.3748777124380496
 13.7396543592643994 89.8997160069531844 19.3748777124380496
 23.8937077371032061 18.8213423620813955 19.3748777124380496
 23.8937077371032061 28.9753957399202271 19.3748777124380496
 23.8937077371032061 39.1294491177590515 19.3748777124380496
 23.8937077371032096 49.2835024955978724 19.3748777124380496
 23.8937077371032061 59.4375558734367075 19.3748777124380496
 23.8937077371032167 69.5916092512755426 19.3748777124380496
 23.8937077371032096 79.7456626291143493 19.3748777124380496
 23.8937077371032096 89.8997160069531844 19.3748777124380496
 54.3558678706196901 28.9753957399202307 19.3748777124380496
 34.0477611149420341 28.9753957399202271 19.3748777124380496
 34.0477611149420198 39.1294491177590444 19.3748777124380496
 34.0477611149420269 49.2835024955978724 19.3748777124380496
 34.0477611149420341 59.4375558734367004 19.3748777124380496
 34.0477611149420341 69.5916092512755284 19.3748777124380496
 34.0477611149420269 79.7456626291143351 19.3748777124380496
 34.0477611149420198 89.8997160069531702 19.3748777124380496
 64.5099212484584967 28.9753957399202449 19.3748777124380496
 44.2018144927808478 28.9753957399202235 19.3748777124380496
 44.2018144927808478 39.1294491177590515 19.3748777124380496
 44.2018144927808692 49.2835024955978724 19.3748777124380496
 44.2018144927808407 59.4375558734367004 19.3748777124380496
 44.2018144927808407 69.5916092512755142 19.3748777124380496
 44.2018144927808407 79.7456626291143351 19.3748777124380496
 44.2018144927808478 89.8997160069531844 19.3748777124380496
 -26.8765591520909197 69.5916092512755284 19.3748777124380496
 54.3558678706196829 39.1294491177590515 19.3748777124380496
 54.3558678706196616 49.2835024955978724 19.3748777124380496
 54.3558678706196758 59.4375558734366933 19.3748777124380496
 -16.7225057742520846 39.1294491177590515 19.3748777124380496
 -16.7225057742520811 49.2835024955978724 19.3748777124380496
 64.5099212484584825 39.1294491177590373 19.3748777124380496
 -6.5684523964132673 18.8213423620814133 19.3748777124380496
 -6.5684523964132655 28.9753957399202271 19.3748777124380496
 -18.1627813630136217 56.8756992542233917 18.3764110234477371
 -18.1627813630136217 67.0297526320621984 18.3764110234477371
 12.2993787705028534  6.1054323650292694 18.3764110234477371
 -8.0087279851747901 36.5675924985457286 18.3764110234477371
 -8.0087279851748008 46.7216458763845637 18.3764110234477371
 -8.0087279851747954 56.8756992542233988 18.3764110234477371
 -8.0087279851747901 67.0297526320622126 18.3764110234477371
 -8.0087279851748008 77.1838060099010619 18.3764110234477371
  2.1453253926640246  6.1054323650292588 18.3764110234477371
  2.1453253926640254 16.2594857428680832 18.3764110234477371
  2.1453253926640272 26.4135391207069077 18.3764110234477371
  2.1453253926640308 36.5675924985457286 18.3764110234477371
  2.1453253926640272 46.7216458763845779 18.3764110234477371
  2.1453253926640201 56.8756992542233846 18.3764110234477371
  2.1453253926640237 67.0297526320622126 18.3764110234477371
  2.1453253926640272 77.1838060099010619 18.3764110234477371
 32.6074855261804899 16.2594857428681046 18.3764110234477371
 12.2993787705028481 16.2594857428680832 18.3764110234477371
 12.2993787705028517 26.4135391207069077 18.3764110234477371
 12.2993787705028463 36.5675924985457357 18.3764110234477371
 12.2993787705028481 46.7216458763845566 18.3764110234477371
 12.2993787705028481 56.8756992542234059 18.3764110234477371
 12.2993787705028446 67.0297526320621984 18.3764110234477371
 12.2993787705028410 77.1838060099010335 18.3764110234477371
 12.2993787705028481 87.3378593877398828 18.3764110234477371
 22.4534321483416690 16.2594857428680832 18.3764110234477371
 22.4534321483416761 26.4135391207069077 18.3764110234477371
 22.4534321483416690 36.5675924985457286 18.3764110234477371
 22.4534321483416832 46.7216458763845637 18.3764110234477371
 22.4534321483416690 56.8756992542234059 18.3764110234477371
 22.4534321483416690 67.0297526320621984 18.3764110234477371
 22.4534321483416690 77.1838060099010335 18.3764110234477371
 22.4534321483416619 87.3378593877398544 18.3764110234477371
 52.9155922818581388 26.4135391207069254 18.3764110234477371
 32.6074855261804828 26.4135391207069077 18.3764110234477371
 32.6074855261804970 36.5675924985457357 18.3764110234477371
 32.6074855261804970 46.7216458763845566 18.3764110234477371
 32.6074855261804970 56.8756992542233775 18.3764110234477371
 32.6074855261805041 67.0297526320622126 18.3764110234477371
 32.6074855261804970 77.1838060099010193 18.3764110234477371
 32.6074855261804828 87.3378593877398544 18.3764110234477371
 32.6074855261804899 97.4919127655786752 18.3764110234477371
 42.7615389040193108 26.4135391207069112 18.3764110234477371
 42.7615389040193250 36.5675924985457286 18.3764110234477371
 42.7615389040193179 46.7216458763845566 18.3764110234477371
 42.7615389040193321 56.8756992542233846 18.3764110234477371
 42.7615389040193321 67.0297526320622126 18.3764110234477371
 42.7615389040193321 77.1838060099010193 18.3764110234477371
 42.7615389040193179 87.3378593877398544 18.3764110234477371
 -28.3168347408524497 67.0297526320622126 18.3764110234477371
 52.9155922818581388 36.5675924985457286 18.3764110234477371
 52.9155922818581459 46.7216458763845708 18.3764110234477371
 52.9155922818581388 56.8756992542233775 18.3764110234477371
 52.9155922818581459 67.0297526320621984 18.3764110234477371
 -18.1627813630136075 46.7216458763845495 18.3764110234477371
 63.0696456596969526 36.5675924985457215 18.3764110234477371
 63.0696456596969526 46.7216458763845566 18.3764110234477371
 -8.0087279851747990 26.4135391207069148 18.3764110234477371
 -17.0946010511032327 57.9155631002511058 17.3781512415680481
 -17.0946010511032362 68.0696164780899267 17.3781512415680481
 13.3675590824132353  7.1452962110569960 17.3781512415680481
 -6.9405476732644100 37.6074563445734498 17.3781512415680481
 -6.9405476732644118 47.7615097224122849 17.3781512415680481
 -6.9405476732644065 57.9155631002510987 17.3781512415680481
 -6.9405476732644047 68.0696164780899267 17.3781512415680481
 -6.9405476732644154 78.2236698559287760 17.3781512415680481
  3.2135057045744087  7.1452962110569773 17.3781512415680481
  3.2135057045744118 17.2993495888958009 17.3781512415680481
  3.2135057045744126 27.4534029667346253 17.3781512415680481
  3.2135057045744144 37.6074563445734498 17.3781512415680481
  3.2135057045744091 47.7615097224122707 17.3781512415680481
  3.2135057045744126 57.9155631002511129 17.3781512415680481
  3.2135057045744091 68.0696164780899267 17.3781512415680481
  3.2135057045744091 78.2236698559287760 17.3781512415680481
 33.6756658380908860 17.2993495888958151 17.3781512415680481
 13.3675590824132353 17.2993495888958009 17.3781512415680481
 13.3675590824132371 27.4534029667346289 17.3781512415680481
 13.3675590824132300 37.6074563445734498 17.3781512415680481
 13.3675590824132264 47.7615097224122707 17.3781512415680481
 13.3675590824132371 57.9155631002511058 17.3781512415680481
 13.3675590824132300 68.0696164780899267 17.3781512415680481
 13.3675590824132335 78.2236698559287760 17.3781512415680481
 13.3675590824132478 88.3777232337675827 17.3781512415680481
 23.5216124602520509 17.2993495888958009 17.3781512415680481
 23.5216124602520580 27.4534029667346253 17.3781512415680481
 23.5216124602520651 37.6074563445734569 17.3781512415680481
 23.5216124602520509 47.7615097224122707 17.3781512415680481
 23.5216124602520580 57.9155631002510987 17.3781512415680481
 23.5216124602520580 68.0696164780899267 17.3781512415680481
 23.5216124602520509 78.2236698559287618 17.3781512415680481
 23.5216124602520509 88.3777232337675827 17.3781512415680481
 53.9837725937685278 27.4534029667346289 17.3781512415680481
 33.6756658380908647 27.4534029667346253 17.3781512415680481
 33.6756658380908789 37.6074563445734498 17.3781512415680481
 33.6756658380908789 47.7615097224122707 17.3781512415680481
 33.6756658380908789 57.9155631002510916 17.3781512415680481
 33.6756658380908860 68.0696164780899267 17.3781512415680481
 33.6756658380908789 78.2236698559287333 17.3781512415680481
 33.6756658380908718 88.3777232337675684 17.3781512415680481
 33.6756658380908647 98.5317766116064035 17.3781512415680481
 43.8297192159296927 27.4534029667346324 17.3781512415680481
 43.8297192159296998 37.6074563445734498 17.3781512415680481
 43.8297192159297069 47.7615097224122707 17.3781512415680481
 43.8297192159297140 57.9155631002511058 17.3781512415680481
 43.8297192159296998 68.0696164780899267 17.3781512415680481
 43.8297192159297140 78.2236698559287333 17.3781512415680481
 43.8297192159297069 88.3777232337675684 17.3781512415680481
 -27.2486544289420536 68.0696164780899124 17.3781512415680481
 53.9837725937685207 37.6074563445734498 17.3781512415680481
 53.9837725937685136 47.7615097224122707 17.3781512415680481
 53.9837725937685491 57.9155631002511058 17.3781512415680481
 53.9837725937685491 68.0696164780899267 17.3781512415680481
 -17.0946010511032327 47.7615097224122707 17.3781512415680481
 64.1378259716073273 37.6074563445734356 17.3781512415680481
 -6.9405476732644331 17.2993495888957973 17.3781512415680481
 -6.9405476732644171 27.4534029667346324 17.3781512415680481
 -18.6079972123351745 59.7966274291358815 17.8881802496303557
 -18.6079972123351709 69.9506808069747024 17.8881802496303557
 11.8541629211812882  9.0263605399417930 17.8881802496303557
 -8.4539438344963553 39.4885206734582326 17.8881802496303557
 -8.4539438344963553 49.6425740512970464 17.8881802496303557
 -8.4539438344963607 59.7966274291358815 17.8881802496303557
 -8.4539438344963571 69.9506808069747024 17.8881802496303557
 -8.4539438344963536 80.1047341848135375 17.8881802496303557
  1.7001095433424647  9.0263605399417557 17.8881802496303557
  1.7001095433424682 19.1804139177805801 17.8881802496303557
  1.7001095433424656 29.3344672956194081 17.8881802496303557
  1.7001095433424691 39.4885206734582255 17.8881802496303557
  1.7001095433424744 49.6425740512970606 17.8881802496303557
  1.7001095433424602 59.7966274291358957 17.8881802496303557
  1.7001095433424744 69.9506808069747024 17.8881802496303557
  1.7001095433424673 80.1047341848135517 17.8881802496303557
 32.1622696768589336 19.1804139177805908 17.8881802496303557
 11.8541629211812882 19.1804139177805801 17.8881802496303557
 11.8541629211812882 29.3344672956194081 17.8881802496303557
 11.8541629211812918 39.4885206734582326 17.8881802496303557
 11.8541629211812918 49.6425740512970535 17.8881802496303557
 11.8541629211812847 59.7966274291358957 17.8881802496303557
 11.8541629211812953 69.9506808069747024 17.8881802496303557
 11.8541629211812847 80.1047341848135375 17.8881802496303557
 42.3163230546977758 19.1804139177805837 17.8881802496303557
 22.0082162990201056 19.1804139177805766 17.8881802496303557
 22.0082162990201198 29.3344672956194081 17.8881802496303557
 22.0082162990201127 39.4885206734582255 17.8881802496303557
 22.0082162990201198 49.6425740512970535 17.8881802496303557
 22.0082162990200985 59.7966274291358815 17.8881802496303557
 22.0082162990201162 69.9506808069747024 17.8881802496303557
 22.0082162990201091 80.1047341848135517 17.8881802496303557
 22.0082162990201198 90.2587875626523441 17.8881802496303557
 52.4703764325365896 29.3344672956194117 17.8881802496303557
 32.1622696768589407 29.3344672956194117 17.8881802496303557
 32.1622696768589407 39.4885206734582326 17.8881802496303557
 32.1622696768589407 49.6425740512970606 17.8881802496303557
 32.1622696768589265 59.7966274291358815 17.8881802496303557
 32.1622696768589336 69.9506808069747024 17.8881802496303557
 32.1622696768589549 80.1047341848135375 17.8881802496303557
 32.1622696768589336 90.2587875626523441 17.8881802496303557
 62.6244298103754176 29.3344672956194188 17.8881802496303557
 42.3163230546977474 29.3344672956194046 17.8881802496303557
 42.3163230546977545 39.4885206734582255 17.8881802496303557
 42.3163230546977687 49.6425740512970606 17.8881802496303557
 42.3163230546977474 59.7966274291358957 17.8881802496303557
 42.3163230546977687 69.9506808069747024 17.8881802496303557
 42.3163230546977758 80.1047341848135233 17.8881802496303557
 42.3163230546977758 90.2587875626523441 17.8881802496303557
 -28.7620505901739918 69.9506808069747166 17.8881802496303557
 52.4703764325365754 39.4885206734582397 17.8881802496303557
 52.4703764325365682 49.6425740512970464 17.8881802496303557
 52.4703764325365754 59.7966274291358886 17.8881802496303557
 52.4703764325365967 69.9506808069747166 17.8881802496303557
 -18.6079972123351709 49.6425740512970535 17.8881802496303557
 62.6244298103753962 39.4885206734582184 17.8881802496303557
 62.6244298103754033 49.6425740512970606 17.8881802496303557
 -8.4539438344963607 29.3344672956194046 17.8881802496303557
 -19.3195380361385531 58.5345076118407661 17.0000000000000000
 -19.3195380361385460 68.6885609896795870 17.0000000000000000
 11.1426220973779131  7.7642407226466581 17.0000000000000000
 -9.1654846582997287 38.2264008561631243 17.0000000000000000
 -9.1654846582997234 48.3804542340019381 17.0000000000000000
 -9.1654846582997216 58.5345076118407661 17.0000000000000000
 -9.1654846582997251 68.6885609896795870 17.0000000000000000
 -9.1654846582997251 78.8426143675184079 17.0000000000000000
  0.9885687195390913  7.7642407226466403 17.0000000000000000
  0.9885687195390922 17.9182941004854612 17.0000000000000000
  0.9885687195390904 28.0723474783242892 17.0000000000000000
  0.9885687195390975 38.2264008561631101 17.0000000000000000
  0.9885687195390922 48.3804542340019523 17.0000000000000000
  0.9885687195390958 58.5345076118407661 17.0000000000000000
  0.9885687195391029 68.6885609896795870 17.0000000000000000
  0.9885687195390958 78.8426143675184079 17.0000000000000000
 31.4507288530555584 17.9182941004854754 17.0000000000000000
 11.1426220973779184 17.9182941004854612 17.0000000000000000
 11.1426220973779131 28.0723474783242892 17.0000000000000000
 11.1426220973779166 38.2264008561631101 17.0000000000000000
 11.1426220973779149 48.3804542340019452 17.0000000000000000
 11.1426220973779238 58.5345076118407661 17.0000000000000000
 11.1426220973779131 68.6885609896795870 17.0000000000000000
 11.1426220973779202 78.8426143675184221 17.0000000000000000
 41.6047822308943864 17.9182941004854825 17.0000000000000000
 21.2966754752167375 17.9182941004854612 17.0000000000000000
 21.2966754752167375 28.0723474783242892 17.0000000000000000
 21.2966754752167446 38.2264008561631101 17.0000000000000000
 21.2966754752167375 48.3804542340019381 17.0000000000000000
 21.2966754752167375 58.5345076118407661 17.0000000000000000
 21.2966754752167482 68.6885609896795870 17.0000000000000000
 21.2966754752167269 78.8426143675184221 17.0000000000000000
 21.2966754752167375 88.9966677453572288 17.0000000000000000
 51.7588356087332144 28.0723474783242963 17.0000000000000000
 31.4507288530555513 28.0723474783242821 17.0000000000000000
 31.4507288530555584 38.2264008561631101 17.0000000000000000
 31.4507288530555584 48.3804542340019310 17.0000000000000000
 31.4507288530555513 58.5345076118407661 17.0000000000000000
 31.4507288530555513 68.6885609896795870 17.0000000000000000
 31.4507288530555584 78.8426143675183937 17.0000000000000000
 31.4507288530555620 88.9966677453572288 17.0000000000000000
 61.9128889865720495 28.0723474783243034 17.0000000000000000
 41.6047822308943864 28.0723474783242821 17.0000000000000000
 41.6047822308943935 38.2264008561631101 17.0000000000000000
 41.6047822308943864 48.3804542340019523 17.0000000000000000
 41.6047822308943864 58.5345076118407661 17.0000000000000000
 41.6047822308943864 68.6885609896795870 17.0000000000000000
 41.6047822308944006 78.8426143675184221 17.0000000000000000
 41.6047822308943864 88.9966677453572288 17.0000000000000000
 41.6047822308943864 99.1507211231960355 17.0000000000000000
 51.7588356087332002 38.2264008561631101 17.0000000000000000
 51.7588356087331931 48.3804542340019452 17.0000000000000000
 51.7588356087332002 58.5345076118407661 17.0000000000000000
 51.7588356087332215 68.6885609896795870 17.0000000000000000
 -19.3195380361385496 48.3804542340019310 17.0000000000000000
 61.9128889865720282 38.2264008561631101 17.0000000000000000
 61.9128889865720140 48.3804542340019310 17.0000000000000000
 -9.1654846582997269 28.0723474783242999 17.0000000000000000
 -19.6776077717343831 58.6955674836313648 18.6484380999944861
 -19.6776077717343867 68.8496208614701999 18.6484380999944861
 10.7845523617820866  7.9253005944372656 18.6484380999944861
 -9.5235543938955693 38.3874607279537230 18.6484380999944861
 -9.5235543938955658 48.5415141057925510 18.6484380999944861
 -9.5235543938955551 58.6955674836313861 18.6484380999944861
 -9.5235543938955587 68.8496208614701999 18.6484380999944861
 -9.5235543938955587 79.0036742393090208 18.6484380999944861
  0.6304989839432582  7.9253005944372541 18.6484380999944861
  0.6304989839432613 18.0793539722760777 18.6484380999944861
  0.6304989839432604 28.2334073501149021 18.6484380999944861
  0.6304989839432587 38.3874607279537230 18.6484380999944861
  0.6304989839432587 48.5415141057925510 18.6484380999944861
  0.6304989839432622 58.6955674836313790 18.6484380999944861
  0.6304989839432587 68.8496208614702141 18.6484380999944861
  0.6304989839432658 79.0036742393090208 18.6484380999944861
 31.0926591174597355 18.0793539722761061 18.6484380999944861
 10.7845523617820902 18.0793539722760777 18.6484380999944861
 10.7845523617820795 28.2334073501149021 18.6484380999944861
 10.7845523617820760 38.3874607279537230 18.6484380999944861
 10.7845523617820849 48.5415141057925510 18.6484380999944861
 10.7845523617820902 58.6955674836313790 18.6484380999944861
 10.7845523617820795 68.8496208614701999 18.6484380999944861
 10.7845523617820902 79.0036742393090208 18.6484380999944861
 41.2467124952985529 18.0793539722761025 18.6484380999944861
 20.9386057396209004 18.0793539722760741 18.6484380999944861
 20.9386057396209111 28.2334073501149021 18.6484380999944861
 20.9386057396208969 38.3874607279537301 18.6484380999944861
 20.9386057396209182 48.5415141057925581 18.6484380999944861
 20.9386057396209040 58.6955674836313790 18.6484380999944861
 20.9386057396209040 68.8496208614701999 18.6484380999944861
 20.9386057396209075 79.0036742393090208 18.6484380999944861
 20.9386057396208969 89.1577276171478559 18.6484380999944861
 51.4007658731373738 28.2334073501149163 18.6484380999944861
 31.0926591174597284 28.2334073501149021 18.6484380999944861
 31.0926591174597213 38.3874607279537230 18.6484380999944861
 31.0926591174597249 48.5415141057925439 18.6484380999944861
 31.0926591174597391 58.6955674836313861 18.6484380999944861
 31.0926591174597320 68.8496208614701999 18.6484380999944861
 31.0926591174597426 79.0036742393090208 18.6484380999944861
 31.0926591174597320 89.1577276171478559 18.6484380999944861
 61.5548192509762018 28.2334073501149199 18.6484380999944861
 41.2467124952985387 28.2334073501149021 18.6484380999944861
 41.2467124952985387 38.3874607279537230 18.6484380999944861
 41.2467124952985529 48.5415141057925581 18.6484380999944861
 41.2467124952985529 58.6955674836313790 18.6484380999944861
 41.2467124952985600 68.8496208614702141 18.6484380999944861
 41.2467124952985529 79.0036742393090208 18.6484380999944861
 41.2467124952985529 89.1577276171478559 18.6484380999944861
 41.2467124952985458 99.3117809949866910 18.6484380999944861
 51.4007658731373667 38.3874607279537230 18.6484380999944861
 51.4007658731373596 48.5415141057925581 18.6484380999944861
 51.4007658731373951 58.6955674836313790 18.6484380999944861
 51.4007658731373596 68.8496208614702141 18.6484380999944861
 -19.6776077717343902 48.5415141057925652 18.6484380999944861
 61.5548192509761876 38.3874607279537301 18.6484380999944861
 61.5548192509761734 48.5415141057925439 18.6484380999944861
 -9.5235543938955729 28.2334073501149092 18.6484380999944861
 -12.7054286930813589 53.3132678274551424 23.2416706077670874
 -12.7054286930813554 63.4673212052939775 23.2416706077670874
 -12.7054286930813625 73.6213745831328197 23.2416706077670874
 -2.5513753152425309 33.0051610717774935 23.2416706077670874
 -2.5513753152425345 43.1592144496163357 23.2416706077670874
 -2.5513753152425345 53.3132678274551708 23.2416706077670874
 -2.5513753152425345 63.4673212052939704 23.2416706077670874
 -2.5513753152425345 73.6213745831327913 23.2416706077670874
 -22.8594820709201727 73.6213745831327770 23.2416706077670874
  7.6026780625962882 12.6970543160998446 23.2416706077670874
  7.6026780625962900 22.8511076939386726 23.2416706077670874
  7.6026780625962882 33.0051610717774935 23.2416706077670874
  7.6026780625962864 43.1592144496163144 23.2416706077670874
  7.6026780625962864 53.3132678274551637 23.2416706077670874
  7.6026780625962935 63.4673212052939633 23.2416706077670874
  7.6026780625962864 73.6213745831327913 23.2416706077670874
  7.6026780625962900 83.7754279609716264 23.2416706077670874
 17.7567314404351109 12.6970543160998446 23.2416706077670874
 17.7567314404351144 22.8511076939386726 23.2416706077670874
 17.7567314404351073 33.0051610717774935 23.2416706077670874
 17.7567314404351109 43.1592144496163215 23.2416706077670874
 17.7567314404351180 53.3132678274551495 23.2416706077670874
 17.7567314404351038 63.4673212052939704 23.2416706077670874
 17.7567314404351073 73.6213745831327913 23.2416706077670874
 17.7567314404351180 83.7754279609716122 23.2416706077670874
 27.9107848182739353 12.6970543160998410 23.2416706077670874
 27.9107848182739353 22.8511076939386690 23.2416706077670874
 27.9107848182739389 33.0051610717774935 23.2416706077670874
 27.9107848182739389 43.1592144496163144 23.2416706077670874
 27.9107848182739247 53.3132678274551637 23.2416706077670874
 27.9107848182739353 63.4673212052939704 23.2416706077670874
 27.9107848182739318 73.6213745831328055 23.2416706077670874
 27.9107848182739211 83.7754279609716264 23.2416706077670874
 27.9107848182739353 93.9294813388104473 23.2416706077670874
 38.0648381961127598 22.8511076939386655 23.2416706077670874
 38.0648381961127527 33.0051610717774935 23.2416706077670874
 38.0648381961127527 43.1592144496163144 23.2416706077670874
 38.0648381961127598 53.3132678274551424 23.2416706077670874
 38.0648381961127669 63.4673212052939704 23.2416706077670874
 38.0648381961127455 73.6213745831327913 23.2416706077670874
 38.0648381961127598 83.7754279609716264 23.2416706077670874
 38.0648381961127455 93.9294813388104473 23.2416706077670874
 48.2188915739515735 22.8511076939386726 23.2416706077670874
 48.2188915739515807 33.0051610717774935 23.2416706077670874
 48.2188915739515878 43.1592144496163215 23.2416706077670874
 48.2188915739515807 53.3132678274551495 23.2416706077670874
 48.2188915739515807 63.4673212052939704 23.2416706077670874
 48.2188915739516091 73.6213745831327913 23.2416706077670874
 48.2188915739515807 83.7754279609716406 23.2416706077670874
 -22.8594820709201834 63.4673212052939917 23.2416706077670874
 58.3729449517904015 33.0051610717774935 23.2416706077670874
 58.3729449517903944 43.1592144496163215 23.2416706077670874
 58.3729449517904015 53.3132678274551424 23.2416706077670874
 -12.7054286930813625 33.0051610717775077 23.2416706077670874
 -12.7054286930813607 43.1592144496163144 23.2416706077670874
 68.5269983296292082 33.0051610717774864 23.2416706077670874
 -2.5513753152425442 12.6970543160998552 23.2416706077670874
 -2.5513753152425291 22.8511076939386832 23.2416706077670874
 -11.9230661868452810 53.4637069625166035 22.0151121192701709
 -11.9230661868452898 63.6177603403554457 22.0151121192701709
 -11.9230661868452898 73.7718137181942666 22.0151121192701709
 -1.7690128090064619 33.1556002068389617 22.0151121192701709
 -1.7690128090064654 43.3096535846777826 22.0151121192701709
 -1.7690128090064690 53.4637069625166106 22.0151121192701709
 -1.7690128090064619 63.6177603403554386 22.0151121192701709
 -1.7690128090064619 73.7718137181942666 22.0151121192701709
 -22.0771195646841107 73.7718137181942382 22.0151121192701709
  8.3850405688323590 12.8474934511613146 22.0151121192701709
  8.3850405688323555 23.0015468290001408 22.0151121192701709
  8.3850405688323608 33.1556002068389617 22.0151121192701709
  8.3850405688323519 43.3096535846777968 22.0151121192701709
  8.3850405688323590 53.4637069625166106 22.0151121192701709
  8.3850405688323555 63.6177603403554315 22.0151121192701709
  8.3850405688323519 73.7718137181942666 22.0151121192701709
  8.3850405688323590 83.9258670960331017 22.0151121192701709
 18.5390939466711799 12.8474934511613181 22.0151121192701709
 18.5390939466711870 23.0015468290001408 22.0151121192701709
 18.5390939466711799 33.1556002068389759 22.0151121192701709
 18.5390939466711764 43.3096535846777968 22.0151121192701709
 18.5390939466711835 53.4637069625166248 22.0151121192701709
 18.5390939466711764 63.6177603403554315 22.0151121192701709
 18.5390939466711799 73.7718137181942666 22.0151121192701709
 18.5390939466711835 83.9258670960331159 22.0151121192701709
 28.6931473245099973 12.8474934511613110 22.0151121192701709
 28.6931473245100150 23.0015468290001373 22.0151121192701709
 28.6931473245100150 33.1556002068389617 22.0151121192701709
 28.6931473245099937 43.3096535846777968 22.0151121192701709
 28.6931473245100008 53.4637069625166106 22.0151121192701709
 28.6931473245099973 63.6177603403554457 22.0151121192701709
 28.6931473245099973 73.7718137181942666 22.0151121192701709
 28.6931473245099937 83.9258670960330875 22.0151121192701709
 28.6931473245100079 94.0799204738719226 22.0151121192701709
 38.8472007023488217 23.0015468290001408 22.0151121192701709
 38.8472007023488217 33.1556002068389546 22.0151121192701709
 38.8472007023488217 43.3096535846777755 22.0151121192701709
 38.8472007023488501 53.4637069625166035 22.0151121192701709
 38.8472007023488217 63.6177603403554315 22.0151121192701709
 38.8472007023488288 73.7718137181942666 22.0151121192701709
 38.8472007023488146 83.9258670960330875 22.0151121192701709
 38.8472007023488146 94.0799204738719226 22.0151121192701709
 49.0012540801876355 23.0015468290001373 22.0151121192701709
 49.0012540801876568 33.1556002068389546 22.0151121192701709
 49.0012540801876497 43.3096535846777968 22.0151121192701709
 49.0012540801876639 53.4637069625166106 22.0151121192701709
 49.0012540801876497 63.6177603403554386 22.0151121192701709
 49.0012540801876497 73.7718137181942524 22.0151121192701709
 -22.0771195646841072 53.4637069625166248 22.0151121192701709
 -22.0771195646841107 63.6177603403554386 22.0151121192701709
 59.1553074580264706 33.1556002068389546 22.0151121192701709
 59.1553074580264493 43.3096535846777968 22.0151121192701709
 59.1553074580264919 53.4637069625166106 22.0151121192701709
 -11.9230661868452898 33.1556002068389546 22.0151121192701709
 -11.9230661868452756 43.3096535846777897 22.0151121192701709
 69.3093608358652915 33.1556002068389546 22.0151121192701709
 -1.7690128090064765 12.8474934511613146 22.0151121192701709
 -1.7690128090064547 23.0015468290001373 22.0151121192701709
 -12.7693068705340753 53.1282943089523911 20.7795868850820469
 -12.7693068705340753 63.2823476867912120 20.7795868850820469
 -12.7693068705340824 73.4364010646300471 20.7795868850820469
 -2.6152534926952598 32.8201875532747636 20.7795868850820469
 -2.6152534926952526 42.9742409311135631 20.7795868850820469
 -2.6152534926952526 53.1282943089523982 20.7795868850820469
 -2.6152534926952455 63.2823476867912191 20.7795868850820469
 -2.6152534926952598 73.4364010646300471 20.7795868850820469
 -22.9233602483729086 73.4364010646300329 20.7795868850820469
  7.5387998851435665 12.5120807975971005 20.7795868850820469
  7.5387998851435638 22.6661341754359213 20.7795868850820469
  7.5387998851435629 32.8201875532747493 20.7795868850820469
  7.5387998851435682 42.9742409311135702 20.7795868850820469
  7.5387998851435682 53.1282943089523982 20.7795868850820469
  7.5387998851435718 63.2823476867912191 20.7795868850820469
  7.5387998851435611 73.4364010646300471 20.7795868850820469
  7.5387998851435754 83.5904544424688680 20.7795868850820469
 17.6928532629823856 12.5120807975970987 20.7795868850820469
 17.6928532629823891 22.6661341754359213 20.7795868850820469
 17.6928532629823820 32.8201875532747636 20.7795868850820469
 17.6928532629823891 42.9742409311135702 20.7795868850820469
 17.6928532629823998 53.1282943089524125 20.7795868850820469
 17.6928532629823927 63.2823476867912120 20.7795868850820469
 17.6928532629823785 73.4364010646300471 20.7795868850820469
 17.6928532629823962 83.5904544424688538 20.7795868850820469
 27.8469066408212029 12.5120807975970987 20.7795868850820469
 27.8469066408212136 22.6661341754359213 20.7795868850820469
 27.8469066408212171 32.8201875532747565 20.7795868850820469
 27.8469066408212100 42.9742409311135702 20.7795868850820469
 27.8469066408212029 53.1282943089524053 20.7795868850820469
 27.8469066408212171 63.2823476867912262 20.7795868850820469
 27.8469066408212100 73.4364010646300613 20.7795868850820469
 27.8469066408212065 83.5904544424688680 20.7795868850820469
 27.8469066408212171 93.7445078203077031 20.7795868850820469
 38.0009600186600380 22.6661341754359285 20.7795868850820469
 38.0009600186600238 32.8201875532747422 20.7795868850820469
 38.0009600186600238 42.9742409311135702 20.7795868850820469
 38.0009600186600451 53.1282943089523911 20.7795868850820469
 38.0009600186600238 63.2823476867912262 20.7795868850820469
 38.0009600186600380 73.4364010646300329 20.7795868850820469
 38.0009600186600238 83.5904544424688680 20.7795868850820469
 38.0009600186600238 93.7445078203077173 20.7795868850820469
 48.1550133964988447 22.6661341754359320 20.7795868850820469
 48.1550133964988589 32.8201875532747493 20.7795868850820469
 48.1550133964988589 42.9742409311135702 20.7795868850820469
 48.1550133964988589 53.1282943089524053 20.7795868850820469
 48.1550133964988589 63.2823476867912191 20.7795868850820469
 48.1550133964988589 73.4364010646300329 20.7795868850820469
 48.1550133964988660 83.5904544424688964 20.7795868850820469
 -22.9233602483729122 63.2823476867912476 20.7795868850820469
 58.3090667743376798 32.8201875532747422 20.7795868850820469
 58.3090667743376656 42.9742409311135702 20.7795868850820469
 58.3090667743376798 53.1282943089523911 20.7795868850820469
 -12.7693068705340842 32.8201875532747422 20.7795868850820469
 -12.7693068705340806 42.9742409311135631 20.7795868850820469
 68.4631201521764865 32.8201875532747493 20.7795868850820469
 -2.6152534926952691 12.5120807975971005 20.7795868850820469
 -2.6152534926952518 22.6661341754359285 20.7795868850820469
 -11.9523808238291931 53.2980015016953814 19.4906790199451798
 -11.9523808238291913 63.4520548795342165 19.4906790199451798
 -11.9523808238291949 73.6061082573730374 19.4906790199451798
 -1.7983274459903686 32.9898947460177325 19.4906790199451798
 -1.7983274459903722 43.1439481238565676 19.4906790199451798
 -1.7983274459903669 53.2980015016953814 19.4906790199451798
 -1.7983274459903704 63.4520548795342165 19.4906790199451798
 -1.7983274459903775 73.6061082573730374 19.4906790199451798
 -22.1064342016680229 73.6061082573730374 19.4906790199451798
  8.3557259318484469 12.6817879903400836 19.4906790199451798
  8.3557259318484487 22.8358413681789045 19.4906790199451798
  8.3557259318484540 32.9898947460177325 19.4906790199451798
  8.3557259318484487 43.1439481238565534 19.4906790199451798
  8.3557259318484505 53.2980015016953956 19.4906790199451798
  8.3557259318484576 63.4520548795342094 19.4906790199451798
  8.3557259318484505 73.6061082573730374 19.4906790199451798
  8.3557259318484576 83.7601616352118583 19.4906790199451798
 18.5097793096872749 12.6817879903400872 19.4906790199451798
 18.5097793096872785 22.8358413681789045 19.4906790199451798
 18.5097793096872749 32.9898947460177396 19.4906790199451798
 18.5097793096872785 43.1439481238565605 19.4906790199451798
 18.5097793096872820 53.2980015016953814 19.4906790199451798
 18.5097793096872749 63.4520548795342165 19.4906790199451798
 18.5097793096872749 73.6061082573730374 19.4906790199451798
 18.5097793096872749 83.7601616352118583 19.4906790199451798
 28.6638326875260887 12.6817879903400836 19.4906790199451798
 28.6638326875260958 22.8358413681789045 19.4906790199451798
 28.6638326875260958 32.9898947460177325 19.4906790199451798
 28.6638326875260958 43.1439481238565605 19.4906790199451798
 28.6638326875260994 53.2980015016953814 19.4906790199451798
 28.6638326875260887 63.4520548795342165 19.4906790199451798
 28.6638326875260887 73.6061082573730374 19.4906790199451798
 28.6638326875260887 83.7601616352118583 19.4906790199451798
 28.6638326875261029 93.9142150130506934 19.4906790199451798
 38.8178860653649167 22.8358413681789116 19.4906790199451798
 38.8178860653649167 32.9898947460177254 19.4906790199451798
 38.8178860653649167 43.1439481238565463 19.4906790199451798
 38.8178860653649096 53.2980015016953814 19.4906790199451798
 38.8178860653649096 63.4520548795342023 19.4906790199451798
 38.8178860653649167 73.6061082573730232 19.4906790199451798
 38.8178860653649167 83.7601616352118867 19.4906790199451798
 38.8178860653649167 93.9142150130506934 19.4906790199451798
 48.9719394432037305 22.8358413681789045 19.4906790199451798
 48.9719394432037518 32.9898947460177254 19.4906790199451798
 48.9719394432037518 43.1439481238565676 19.4906790199451798
 48.9719394432037518 53.2980015016953814 19.4906790199451798
 48.9719394432037447 63.4520548795342094 19.4906790199451798
 48.9719394432037518 73.6061082573730232 19.4906790199451798
 -22.1064342016680158 53.2980015016953885 19.4906790199451798
 -22.1064342016680229 63.4520548795342236 19.4906790199451798
 59.1259928210425656 32.9898947460177254 19.4906790199451798
 59.1259928210425514 43.1439481238565676 19.4906790199451798
 59.1259928210425727 53.2980015016953814 19.4906790199451798
 -11.9523808238291984 32.9898947460177325 19.4906790199451798
 -11.9523808238291842 43.1439481238565605 19.4906790199451798
 69.2800461988813794 32.9898947460177254 19.4906790199451798
 -1.7983274459903806 12.6817879903400801 19.4906790199451798
 -1.7983274459903811 22.8358413681789081 19.4906790199451798
 -12.7214973021448134 52.8411187034560612 18.2397930072861207
 -12.7214973021448223 62.9951720812948821 18.2397930072861207
 -12.7214973021448028 73.1492254591336888 18.2397930072861207
 -2.5674439243059926 32.5330119477784052 18.2397930072861207
 -2.5674439243059979 42.6870653256172474 18.2397930072861207
 -2.5674439243059872 52.8411187034560683 18.2397930072861207
 -2.5674439243059872 62.9951720812948963 18.2397930072861207
 -2.5674439243059872 73.1492254591337030 18.2397930072861207
 -22.8755506799836397 73.1492254591336888 18.2397930072861207
  7.5866094535328301 12.2249051921007617 18.2397930072861207
  7.5866094535328301 22.3789585699395879 18.2397930072861207
  7.5866094535328283 32.5330119477784052 18.2397930072861207
  7.5866094535328248 42.6870653256172403 18.2397930072861207
  7.5866094535328230 52.8411187034560612 18.2397930072861207
  7.5866094535328301 62.9951720812948821 18.2397930072861207
  7.5866094535328408 73.1492254591337030 18.2397930072861207
  7.5866094535328408 83.3032788369725381 18.2397930072861207
 17.7406628313716510 12.2249051921007599 18.2397930072861207
 17.7406628313716510 22.3789585699395879 18.2397930072861207
 17.7406628313716510 32.5330119477784052 18.2397930072861207
 17.7406628313716510 42.6870653256172474 18.2397930072861207
 17.7406628313716652 52.8411187034560470 18.2397930072861207
 17.7406628313716404 62.9951720812948963 18.2397930072861207
 17.7406628313716546 73.1492254591337030 18.2397930072861207
 17.7406628313716652 83.3032788369725239 18.2397930072861207
 27.8947162092104719 12.2249051921007581 18.2397930072861207
 27.8947162092104755 22.3789585699395879 18.2397930072861207
 27.8947162092104755 32.5330119477784194 18.2397930072861207
 27.8947162092104826 42.6870653256172403 18.2397930072861207
 27.8947162092104719 52.8411187034560612 18.2397930072861207
 27.8947162092104755 62.9951720812948963 18.2397930072861207
 27.8947162092104826 73.1492254591337030 18.2397930072861207
 27.8947162092104790 83.3032788369725381 18.2397930072861207
 27.8947162092104719 93.4573322148113732 18.2397930072861207
 38.0487695870492857 22.3789585699395808 18.2397930072861207
 38.0487695870493141 32.5330119477784123 18.2397930072861207
 38.0487695870492999 42.6870653256172261 18.2397930072861207
 38.0487695870492999 52.8411187034560541 18.2397930072861207
 38.0487695870493070 62.9951720812948963 18.2397930072861207
 38.0487695870492999 73.1492254591336888 18.2397930072861207
 38.0487695870492928 83.3032788369725239 18.2397930072861207
 38.0487695870492857 93.4573322148113448 18.2397930072861207
 48.2028229648881066 22.3789585699395843 18.2397930072861207
 48.2028229648881208 32.5330119477784052 18.2397930072861207
 48.2028229648881279 42.6870653256172474 18.2397930072861207
 48.2028229648881279 52.8411187034560612 18.2397930072861207
 48.2028229648881208 62.9951720812948821 18.2397930072861207
 48.2028229648881137 73.1492254591336888 18.2397930072861207
 48.2028229648881279 83.3032788369725239 18.2397930072861207
 -22.8755506799836503 62.9951720812948821 18.2397930072861207
 58.3568763427269559 32.5330119477784194 18.2397930072861207
 58.3568763427269346 42.6870653256172474 18.2397930072861207
 58.3568763427269559 52.8411187034560541 18.2397930072861207
 -12.7214973021448134 32.5330119477784123 18.2397930072861207
 -12.7214973021448081 42.6870653256172261 18.2397930072861207
 68.5109297205657697 32.5330119477783981 18.2397930072861207
 -2.5674439243060121 12.2249051921007599 18.2397930072861207
 -2.5674439243059943 22.3789585699395879 18.2397930072861207
 -13.8481859793319622 53.7239430856778029 17.9310013491914546
 -13.8481859793319657 63.8779964635166451 17.9310013491914546
 -13.8481859793319533 74.0320498413554731 17.9310013491914546
 -3.6941326014931377 33.4158363300001611 17.9310013491914546
 -3.6941326014931448 43.5698897078389962 17.9310013491914546
 -3.6941326014931342 53.7239430856778100 17.9310013491914546
 -3.6941326014931413 63.8779964635166451 17.9310013491914546
 -3.6941326014931377 74.0320498413554873 17.9310013491914546
  6.4599207763456823  2.9536761964836882 17.9310013491914546
  6.4599207763456814 13.1077295743225122 17.9310013491914546
  6.4599207763456832 23.2617829521613366 17.9310013491914546
  6.4599207763456832 33.4158363300001611 17.9310013491914546
  6.4599207763456885 43.5698897078389820 17.9310013491914546
  6.4599207763456796 53.7239430856778242 17.9310013491914546
  6.4599207763456761 63.8779964635166451 17.9310013491914546
  6.4599207763456796 74.0320498413554589 17.9310013491914546
  6.4599207763456903 84.1861032191942797 17.9310013491914546
 16.6139741541845076 13.1077295743225122 17.9310013491914546
 16.6139741541845041 23.2617829521613366 17.9310013491914546
 16.6139741541845041 33.4158363300001611 17.9310013491914546
 16.6139741541845041 43.5698897078389962 17.9310013491914546
 16.6139741541845183 53.7239430856778171 17.9310013491914546
 16.6139741541845005 63.8779964635166522 17.9310013491914546
 16.6139741541845041 74.0320498413554589 17.9310013491914546
 16.6139741541845183 84.1861032191942797 17.9310013491914546
 26.7680275320233321 13.1077295743225140 17.9310013491914546
 26.7680275320233285 23.2617829521613402 17.9310013491914546
 26.7680275320233285 33.4158363300001611 17.9310013491914546
 26.7680275320233321 43.5698897078389962 17.9310013491914546
 26.7680275320233179 53.7239430856778171 17.9310013491914546
 26.7680275320233179 63.8779964635166451 17.9310013491914546
 26.7680275320233321 74.0320498413554873 17.9310013491914546
 26.7680275320233214 84.1861032191942797 17.9310013491914546
 26.7680275320233321 94.3401565970331148 17.9310013491914546
 36.9220809098621459 23.2617829521613331 17.9310013491914546
 36.9220809098621388 33.4158363300001611 17.9310013491914546
 36.9220809098621388 43.5698897078389820 17.9310013491914546
 36.9220809098621601 53.7239430856778029 17.9310013491914546
 36.9220809098621530 63.8779964635166522 17.9310013491914546
 36.9220809098621459 74.0320498413554589 17.9310013491914546
 36.9220809098621601 84.1861032191942797 17.9310013491914546
 36.9220809098621743 94.3401565970331148 17.9310013491914546
 47.0761342877009668 23.2617829521613331 17.9310013491914546
 47.0761342877009810 33.4158363300001611 17.9310013491914546
 47.0761342877009810 43.5698897078389962 17.9310013491914546
 47.0761342877009881 53.7239430856778029 17.9310013491914546
 47.0761342877009739 63.8779964635166309 17.9310013491914546
 47.0761342877009739 74.0320498413554446 17.9310013491914546
 47.0761342877010094 84.1861032191942797 17.9310013491914546
 -24.0022393571707937 63.8779964635166451 17.9310013491914546
 57.2301876655398019 33.4158363300001611 17.9310013491914546
 57.2301876655397948 43.5698897078389891 17.9310013491914546
 57.2301876655398019 53.7239430856778029 17.9310013491914546
 -13.8481859793319551 33.4158363300001682 17.9310013491914546
 -13.8481859793319551 43.5698897078389891 17.9310013491914546
 67.3842410433786085 33.4158363300001469 17.9310013491914546
 -3.6941326014931679 13.1077295743225068 17.9310013491914546
 -3.6941326014931484 23.2617829521613295 17.9310013491914546
 -12.1017894420452876 53.5461362519349251 24.0630389682395815
 -12.1017894420452876 63.7001896297737673 24.0630389682395815
 -12.1017894420452912 73.8542430076125811 24.0630389682395815
 -1.9477360642064667 33.2380294962572833 24.0630389682395815
 -1.9477360642064632 43.3920828740961113 24.0630389682395815
 -1.9477360642064632 53.5461362519349464 24.0630389682395815
 -1.9477360642064525 63.7001896297737602 24.0630389682395815
 -1.9477360642064667 73.8542430076125811 24.0630389682395815
 -22.2558428198841085 73.8542430076125669 24.0630389682395815
  8.2063173136323577 12.9299227405796344 24.0630389682395815
  8.2063173136323595 23.0839761184184553 24.0630389682395815
  8.2063173136323542 33.2380294962572833 24.0630389682395815
  8.2063173136323648 43.3920828740961113 24.0630389682395815
  8.2063173136323648 53.5461362519349393 24.0630389682395815
  8.2063173136323613 63.7001896297737673 24.0630389682395815
  8.2063173136323542 73.8542430076125811 24.0630389682395815
  8.2063173136323684 84.0082963854514162 24.0630389682395815
 18.3603706914711893 12.9299227405796362 24.0630389682395815
 18.3603706914711822 23.0839761184184589 24.0630389682395815
 18.3603706914711751 33.2380294962572833 24.0630389682395815
 18.3603706914711786 43.3920828740961042 24.0630389682395815
 18.3603706914711822 53.5461362519349322 24.0630389682395815
 18.3603706914711822 63.7001896297737673 24.0630389682395815
 18.3603706914711786 73.8542430076126095 24.0630389682395815
 18.3603706914711964 84.0082963854514162 24.0630389682395815
 28.5144240693100031 12.9299227405796344 24.0630389682395815
 28.5144240693099995 23.0839761184184553 24.0630389682395815
 28.5144240693100102 33.2380294962572833 24.0630389682395815
 28.5144240693100031 43.3920828740961042 24.0630389682395815
 28.5144240693100031 53.5461362519349251 24.0630389682395815
 28.5144240693099995 63.7001896297737602 24.0630389682395815
 28.5144240693099817 73.8542430076125953 24.0630389682395815
 28.5144240693099960 84.0082963854514020 24.0630389682395815
 28.5144240693100208 94.1623497632902229 24.0630389682395815
 38.6684774471488169 23.0839761184184518 24.0630389682395815
 38.6684774471488240 33.2380294962572762 24.0630389682395815
 38.6684774471488311 43.3920828740961113 24.0630389682395815
 38.6684774471488382 53.5461362519349322 24.0630389682395815
 38.6684774471488169 63.7001896297737531 24.0630389682395815
 38.6684774471488311 73.8542430076125811 24.0630389682395815
 38.6684774471488240 84.0082963854514304 24.0630389682395815
 38.6684774471488311 94.1623497632902229 24.0630389682395815
 48.8225308249876377 23.0839761184184589 24.0630389682395815
 48.8225308249876377 33.2380294962572762 24.0630389682395815
 48.8225308249876520 43.3920828740961042 24.0630389682395815
 48.8225308249876448 53.5461362519349393 24.0630389682395815
 48.8225308249876448 63.7001896297737673 24.0630389682395815
 48.8225308249876377 73.8542430076125669 24.0630389682395815
 -22.2558428198841156 53.5461362519349393 24.0630389682395815
 -22.2558428198841050 63.7001896297737602 24.0630389682395815
 58.9765842028264800 33.2380294962572904 24.0630389682395815
 58.9765842028264586 43.3920828740961042 24.0630389682395815
 58.9765842028264871 53.5461362519349393 24.0630389682395815
 -12.1017894420452929 33.2380294962572904 24.0630389682395815
 -12.1017894420452876 43.3920828740961113 24.0630389682395815
 69.1306375806652937 33.2380294962572691 24.0630389682395815
 -1.9477360642064725 12.9299227405796291 24.0630389682395815
 -1.9477360642064578 23.0839761184184660 24.0630389682395815
 -13.5239162687358832 53.9643841619339284 23.2280548490837937
 -13.5239162687358849 64.1184375397727564 23.2280548490837937
 -13.5239162687358849 74.2724909176116199 23.2280548490837937
 -3.3698628908970605 33.6562774062562866 23.2280548490837937
 -3.3698628908970711 43.8103307840951217 23.2280548490837937
 -3.3698628908970676 53.9643841619339497 23.2280548490837937
 -3.3698628908970605 64.1184375397727706 23.2280548490837937
 -3.3698628908970605 74.2724909176115915 23.2280548490837937
  6.7841904869417586  3.1941172727398133 23.2280548490837937
  6.7841904869417577 13.3481706505786377 23.2280548490837937
  6.7841904869417613 23.5022240284174622 23.2280548490837937
  6.7841904869417640 33.6562774062562866 23.2280548490837937
  6.7841904869417604 43.8103307840951217 23.2280548490837937
  6.7841904869417604 53.9643841619339355 23.2280548490837937
  6.7841904869417675 64.1184375397727706 23.2280548490837937
  6.7841904869417533 74.2724909176116199 23.2280548490837937
  6.7841904869417569 84.4265442954504408 23.2280548490837937
 16.9382438647805884 13.3481706505786413 23.2280548490837937
 16.9382438647805813 23.5022240284174622 23.2280548490837937
 16.9382438647805884 33.6562774062562866 23.2280548490837937
 16.9382438647805813 43.8103307840951146 23.2280548490837937
 16.9382438647805849 53.9643841619339355 23.2280548490837937
 16.9382438647805778 64.1184375397727564 23.2280548490837937
 16.9382438647805813 74.2724909176116199 23.2280548490837937
 16.9382438647805920 84.4265442954504124 23.2280548490837937
 27.0922972426193986 13.3481706505786395 23.2280548490837937
 27.0922972426194058 23.5022240284174622 23.2280548490837937
 27.0922972426194022 33.6562774062562866 23.2280548490837937
 27.0922972426193986 43.8103307840951146 23.2280548490837937
 27.0922972426194058 53.9643841619339497 23.2280548490837937
 27.0922972426194093 64.1184375397727706 23.2280548490837937
 27.0922972426193915 74.2724909176115915 23.2280548490837937
 27.0922972426194058 84.4265442954504408 23.2280548490837937
 27.0922972426194235 94.5805976732892475 23.2280548490837937
 37.2463506204582160 23.5022240284174622 23.2280548490837937
 37.2463506204582231 33.6562774062562795 23.2280548490837937
 37.2463506204582231 43.8103307840951004 23.2280548490837937
 37.2463506204582444 53.9643841619339355 23.2280548490837937
 37.2463506204582231 64.1184375397727706 23.2280548490837937
 37.2463506204582373 74.2724909176115773 23.2280548490837937
 37.2463506204582231 84.4265442954504124 23.2280548490837937
 37.2463506204582302 94.5805976732892333 23.2280548490837937
 47.4004039982970440 23.5022240284174622 23.2280548490837937
 47.4004039982970582 33.6562774062562795 23.2280548490837937
 47.4004039982970653 43.8103307840951217 23.2280548490837937
 47.4004039982970582 53.9643841619339355 23.2280548490837937
 47.4004039982970511 64.1184375397727706 23.2280548490837937
 47.4004039982970653 74.2724909176115773 23.2280548490837937
 47.4004039982970511 84.4265442954504124 23.2280548490837937
 -23.6779696465746952 64.1184375397727706 23.2280548490837937
 57.5544573761358578 33.6562774062562795 23.2280548490837937
 57.5544573761358649 43.8103307840951075 23.2280548490837937
 57.5544573761359004 53.9643841619339355 23.2280548490837937
 -13.5239162687358849 33.6562774062562937 23.2280548490837937
 -13.5239162687358867 43.8103307840951217 23.2280548490837937
 67.7085107539746787 33.6562774062562724 23.2280548490837937
 -3.3698628908970827 13.3481706505786324 23.2280548490837937
 -3.3698628908970667 23.5022240284174586 23.2280548490837937
 -13.0393427351901732 52.3265292777870314 23.3360889213816343
 -13.0393427351901714 62.4805826556258666 23.3360889213816343
 -13.0393427351901643 72.6346360334646874 23.3360889213816343
 -2.8852893573513487 32.0184225221093897 23.3360889213816343
 -2.8852893573513416 42.1724758999482106 23.3360889213816343
 -2.8852893573513434 52.3265292777870528 23.3360889213816343
 -2.8852893573513398 62.4805826556258666 23.3360889213816343
 -2.8852893573513470 72.6346360334646874 23.3360889213816343
 -23.1933961130289923 72.6346360334646732 23.3360889213816343
  7.2687640204874748 11.7103157664317372 23.3360889213816343
  7.2687640204874739 21.8643691442705617 23.3360889213816343
  7.2687640204874775 32.0184225221093897 23.3360889213816343
  7.2687640204874810 42.1724758999482106 23.3360889213816343
  7.2687640204874704 52.3265292777870386 23.3360889213816343
  7.2687640204874775 62.4805826556258666 23.3360889213816343
  7.2687640204874846 72.6346360334646874 23.3360889213816343
  7.2687640204874704 82.7886894113035083 23.3360889213816343
 17.4228173983262948 11.7103157664317408 23.3360889213816343
 17.4228173983262948 21.8643691442705617 23.3360889213816343
 17.4228173983262948 32.0184225221093897 23.3360889213816343
 17.4228173983262948 42.1724758999482106 23.3360889213816343
 17.4228173983262948 52.3265292777870386 23.3360889213816343
 17.4228173983263019 62.4805826556258666 23.3360889213816343
 17.4228173983262877 72.6346360334646874 23.3360889213816343
 17.4228173983262948 82.7886894113035083 23.3360889213816343
 -2.8852893573513505 82.7886894113034941 23.3360889213816343
 27.5768707761651228 21.8643691442705617 23.3360889213816343
 27.5768707761651193 32.0184225221093897 23.3360889213816343
 27.5768707761651299 42.1724758999482106 23.3360889213816343
 27.5768707761651264 52.3265292777870457 23.3360889213816343
 27.5768707761651193 62.4805826556258666 23.3360889213816343
 27.5768707761651228 72.6346360334646874 23.3360889213816343
 27.5768707761651193 82.7886894113035225 23.3360889213816343
 27.5768707761651299 92.9427427891423434 23.3360889213816343
 37.7309241540039295 21.8643691442705581 23.3360889213816343
 37.7309241540039508 32.0184225221093897 23.3360889213816343
 37.7309241540039508 42.1724758999482106 23.3360889213816343
 37.7309241540039437 52.3265292777870314 23.3360889213816343
 37.7309241540039437 62.4805826556258666 23.3360889213816343
 37.7309241540039437 72.6346360334646732 23.3360889213816343
 37.7309241540039295 82.7886894113035225 23.3360889213816343
 37.7309241540039366 92.9427427891423292 23.3360889213816343
 47.8849775318427575 21.8643691442705581 23.3360889213816343
 47.8849775318427646 32.0184225221093826 23.3360889213816343
 47.8849775318427859 42.1724758999482106 23.3360889213816343
 47.8849775318427646 52.3265292777870528 23.3360889213816343
 47.8849775318427717 62.4805826556258737 23.3360889213816343
 47.8849775318427646 72.6346360334646732 23.3360889213816343
 47.8849775318427930 82.7886894113035225 23.3360889213816343
 -23.1933961130290101 62.4805826556258666 23.3360889213816343
 58.0390309096815855 32.0184225221093826 23.3360889213816343
 58.0390309096815855 42.1724758999482106 23.3360889213816343
 58.0390309096815855 52.3265292777870314 23.3360889213816343
 -13.0393427351901678 32.0184225221093968 23.3360889213816343
 -13.0393427351901643 42.1724758999482106 23.3360889213816343
 68.1930842875203922 32.0184225221093826 23.3360889213816343
 -2.8852893573513683 11.7103157664317372 23.3360889213816343
 -2.8852893573513532 21.8643691442705688 23.3360889213816343
 -11.0406760060046949 52.7868815239213518 22.0578739937673376
 -11.0406760060046967 62.9409349017602011 22.0578739937673376
 -11.0406760060046913 73.0949882795990078 22.0578739937673376
 -0.8866226281658740 32.4787747682437100 22.0578739937673376
 -0.8866226281658740 42.6328281460825451 22.0578739937673376
 -0.8866226281658705 52.7868815239213660 22.0578739937673376
 -0.8866226281658776 62.9409349017601940 22.0578739937673376
 -0.8866226281658633 73.0949882795990220 22.0578739937673376
 -21.1947293838435158 73.0949882795990078 22.0578739937673376
  9.2674307496729469 12.1706680125660611 22.0578739937673376
  9.2674307496729504 22.3247213904048820 22.0578739937673376
  9.2674307496729487 32.4787747682437100 22.0578739937673376
  9.2674307496729469 42.6328281460825309 22.0578739937673376
  9.2674307496729469 52.7868815239213731 22.0578739937673376
  9.2674307496729504 62.9409349017601940 22.0578739937673376
  9.2674307496729540 73.0949882795990078 22.0578739937673376
  9.2674307496729540 83.2490416574378287 22.0578739937673376
 19.4214841275117713 12.1706680125660611 22.0578739937673376
 19.4214841275117713 22.3247213904048856 22.0578739937673376
 19.4214841275117678 32.4787747682437100 22.0578739937673376
 19.4214841275117678 42.6328281460825309 22.0578739937673376
 19.4214841275117678 52.7868815239213731 22.0578739937673376
 19.4214841275117713 62.9409349017601940 22.0578739937673376
 19.4214841275117855 73.0949882795990078 22.0578739937673376
 19.4214841275117713 83.2490416574378429 22.0578739937673376
 -0.8866226281658705 83.2490416574378145 22.0578739937673376
 29.5755375053505958 22.3247213904048927 22.0578739937673376
 29.5755375053505922 32.4787747682437100 22.0578739937673376
 29.5755375053505922 42.6328281460825309 22.0578739937673376
 29.5755375053505887 52.7868815239213660 22.0578739937673376
 29.5755375053505993 62.9409349017601869 22.0578739937673376
 29.5755375053505851 73.0949882795990362 22.0578739937673376
 29.5755375053505851 83.2490416574378287 22.0578739937673376
 29.5755375053505993 93.4030950352766780 22.0578739937673376
 39.7295908831894025 22.3247213904048820 22.0578739937673376
 39.7295908831894096 32.4787747682437100 22.0578739937673376
 39.7295908831894167 42.6328281460825309 22.0578739937673376
 39.7295908831894309 52.7868815239213518 22.0578739937673376
 39.7295908831894167 62.9409349017602011 22.0578739937673376
 39.7295908831894167 73.0949882795990078 22.0578739937673376
 39.7295908831894167 83.2490416574378429 22.0578739937673376
 39.7295908831894309 93.4030950352766780 22.0578739937673376
 49.8836442610282447 22.3247213904048891 22.0578739937673376
 49.8836442610282518 32.4787747682437100 22.0578739937673376
 49.8836442610282518 42.6328281460825380 22.0578739937673376
 49.8836442610282376 52.7868815239213589 22.0578739937673376
 49.8836442610282234 62.9409349017602011 22.0578739937673376
 49.8836442610282518 73.0949882795990078 22.0578739937673376
 -21.1947293838435264 52.7868815239213660 22.0578739937673376
 -21.1947293838435264 62.9409349017601798 22.0578739937673376
 60.0376976388670585 32.4787747682437100 22.0578739937673376
 60.0376976388670514 42.6328281460825380 22.0578739937673376
 60.0376976388670585 52.7868815239213518 22.0578739937673376
 -11.0406760060047056 32.4787747682437100 22.0578739937673376
 -11.0406760060047073 42.6328281460825309 22.0578739937673376
 70.1917510167058651 32.4787747682436958 22.0578739937673376
 -0.8866226281658869 12.1706680125660611 22.0578739937673376
 -0.8866226281658687 22.3247213904048856 22.0578739937673376
 -11.5546364167542439 54.5112451816164523 21.9406733613767031
 -11.5546364167542492 64.6652985594552661 21.9406733613767031
 -11.5546364167542421 74.8193519372941012 21.9406733613767031
 -1.4005830389154230 34.2031384259388034 21.9406733613767031
 -1.4005830389154230 44.3571918037776314 21.9406733613767031
 -1.4005830389154248 54.5112451816164665 21.9406733613767031
 -1.4005830389154283 64.6652985594552661 21.9406733613767031
 -1.4005830389154177 74.8193519372941012 21.9406733613767031
 -21.7086897945930701 74.8193519372940870 21.9406733613767031
  8.7534703389233961 13.8950316702611563 21.9406733613767031
  8.7534703389234032 24.0490850480999754 21.9406733613767031
  8.7534703389233979 34.2031384259387963 21.9406733613767031
  8.7534703389233997 44.3571918037776385 21.9406733613767031
  8.7534703389233997 54.5112451816164594 21.9406733613767031
  8.7534703389234103 64.6652985594552803 21.9406733613767031
  8.7534703389234068 74.8193519372941154 21.9406733613767031
  8.7534703389234068 84.9734053151329363 21.9406733613767031
 18.9075237167622277 13.8950316702611545 21.9406733613767031
 18.9075237167622205 24.0490850480999754 21.9406733613767031
 18.9075237167622205 34.2031384259387963 21.9406733613767031
 18.9075237167622134 44.3571918037776314 21.9406733613767031
 18.9075237167622170 54.5112451816164665 21.9406733613767031
 18.9075237167622170 64.6652985594552661 21.9406733613767031
 18.9075237167622348 74.8193519372941012 21.9406733613767031
 18.9075237167622205 84.9734053151329221 21.9406733613767031
 29.0615770946010414 13.8950316702611509 21.9406733613767031
 29.0615770946010485 24.0490850480999754 21.9406733613767031
 29.0615770946010414 34.2031384259388034 21.9406733613767031
 29.0615770946010414 44.3571918037776243 21.9406733613767031
 29.0615770946010379 54.5112451816164594 21.9406733613767031
 29.0615770946010485 64.6652985594552661 21.9406733613767031
 29.0615770946010343 74.8193519372941012 21.9406733613767031
 29.0615770946010450 84.9734053151329221 21.9406733613767031
 29.0615770946010556 95.1274586929717572 21.9406733613767031
 39.2156304724398552 24.0490850480999789 21.9406733613767031
 39.2156304724398694 34.2031384259388034 21.9406733613767031
 39.2156304724398694 44.3571918037776385 21.9406733613767031
 39.2156304724398836 54.5112451816164452 21.9406733613767031
 39.2156304724398552 64.6652985594552661 21.9406733613767031
 39.2156304724398694 74.8193519372941012 21.9406733613767031
 39.2156304724398765 84.9734053151329221 21.9406733613767031
 39.2156304724398694 95.1274586929717429 21.9406733613767031
 49.3696838502786761 24.0490850480999754 21.9406733613767031
 49.3696838502786974 34.2031384259388034 21.9406733613767031
 49.3696838502787045 44.3571918037776385 21.9406733613767031
 49.3696838502786903 54.5112451816164665 21.9406733613767031
 49.3696838502786903 64.6652985594552661 21.9406733613767031
 49.3696838502786832 74.8193519372941012 21.9406733613767031
 -21.7086897945930524 54.5112451816164523 21.9406733613767031
 -21.7086897945930772 64.6652985594552803 21.9406733613767031
 59.5237372281175041 34.2031384259388034 21.9406733613767031
 59.5237372281175183 44.3571918037776314 21.9406733613767031
 59.5237372281175112 54.5112451816164452 21.9406733613767031
 -11.5546364167542492 34.2031384259388034 21.9406733613767031
 -11.5546364167542492 44.3571918037776314 21.9406733613767031
 -1.4005830389154490  3.7409782924223185 21.9406733613767031
 -1.4005830389154341 13.8950316702611563 21.9406733613767031
 -1.4005830389154195 24.0490850480999860 21.9406733613767031
 -13.6504011098863085 53.8043908287619743 20.7560040116677591
 -13.6504011098863050 63.9584442066008094 20.7560040116677591
 -13.6504011098863050 74.1124975844396232 20.7560040116677591
 -3.4963477320474858 33.4962840730843325 20.7560040116677591
 -3.4963477320474858 43.6503374509231392 20.7560040116677591
 -3.4963477320474894 53.8043908287619814 20.7560040116677591
 -3.4963477320474823 63.9584442066008023 20.7560040116677591
 -3.4963477320474894 74.1124975844396374 20.7560040116677591
  6.6577056457913333  3.0341239395678521 20.7560040116677591
  6.6577056457913359 13.1881773174066765 20.7560040116677591
  6.6577056457913333 23.3422306952455045 20.7560040116677591
  6.6577056457913333 33.4962840730843254 20.7560040116677591
  6.6577056457913422 43.6503374509231463 20.7560040116677591
  6.6577056457913315 53.8043908287620027 20.7560040116677591
  6.6577056457913351 63.9584442066008023 20.7560040116677591
  6.6577056457913351 74.1124975844396232 20.7560040116677591
  6.6577056457913422 84.2665509622784441 20.7560040116677591
 16.8117590236301595 13.1881773174066765 20.7560040116677591
 16.8117590236301631 23.3422306952455045 20.7560040116677591
 16.8117590236301524 33.4962840730843254 20.7560040116677591
 16.8117590236301666 43.6503374509231463 20.7560040116677591
 16.8117590236301631 53.8043908287619885 20.7560040116677591
 16.8117590236301524 63.9584442066008165 20.7560040116677591
 16.8117590236301524 74.1124975844396232 20.7560040116677591
 16.8117590236301737 84.2665509622784441 20.7560040116677591
 26.9658124014689733 13.1881773174066748 20.7560040116677591
 26.9658124014689804 23.3422306952455045 20.7560040116677591
 26.9658124014689839 33.4962840730843254 20.7560040116677591
 26.9658124014689804 43.6503374509231463 20.7560040116677591
 26.9658124014689733 53.8043908287619885 20.7560040116677591
 26.9658124014689733 63.9584442066008094 20.7560040116677591
 26.9658124014689733 74.1124975844396374 20.7560040116677591
 26.9658124014689626 84.2665509622784725 20.7560040116677591
 26.9658124014689911 94.4206043401172934 20.7560040116677591
 37.1198657793078013 23.3422306952454974 20.7560040116677591
 37.1198657793077942 33.4962840730843254 20.7560040116677591
 37.1198657793078084 43.6503374509231463 20.7560040116677591
 37.1198657793078155 53.8043908287619672 20.7560040116677591
 37.1198657793077942 63.9584442066008023 20.7560040116677591
 37.1198657793078013 74.1124975844396090 20.7560040116677591
 37.1198657793077942 84.2665509622784725 20.7560040116677591
 37.1198657793078084 94.4206043401172650 20.7560040116677591
 47.2739191571466151 23.3422306952454974 20.7560040116677591
 47.2739191571466293 33.4962840730843325 20.7560040116677591
 47.2739191571466435 43.6503374509231463 20.7560040116677591
 47.2739191571466364 53.8043908287619956 20.7560040116677591
 47.2739191571466222 63.9584442066008023 20.7560040116677591
 47.2739191571466364 74.1124975844396090 20.7560040116677591
 47.2739191571466293 84.2665509622784725 20.7560040116677591
 -23.8044544877251383 63.9584442066008165 20.7560040116677591
 57.4279725349854431 33.4962840730843325 20.7560040116677591
 57.4279725349854431 43.6503374509231463 20.7560040116677591
 57.4279725349854431 53.8043908287619672 20.7560040116677591
 -13.6504011098863174 33.4962840730843325 20.7560040116677591
 -13.6504011098863174 43.6503374509231463 20.7560040116677591
 67.5820259128242640 33.4962840730843183 20.7560040116677591
 -3.4963477320474987 13.1881773174066819 20.7560040116677591
 -3.4963477320474823 23.3422306952455010 20.7560040116677591
 -13.1279518927138668 52.0784876809236152 20.8567184782760293
 -13.1279518927138579 62.2325410587624432 20.8567184782760293
 -13.1279518927138525 72.3865944366012712 20.8567184782760293
 -2.9738985148750423 31.7703809252459806 20.8567184782760293
 -2.9738985148750405 41.9244343030847944 20.8567184782760293
 -2.9738985148750317 52.0784876809236295 20.8567184782760293
 -2.9738985148750388 62.2325410587624432 20.8567184782760293
 -2.9738985148750352 72.3865944366012712 20.8567184782760293
 -23.2820052705526876 72.3865944366012570 20.8567184782760293
  7.1801548629637804 11.4622741695683246 20.8567184782760293
  7.1801548629637786 21.6163275474071526 20.8567184782760293
  7.1801548629637804 31.7703809252459770 20.8567184782760293
  7.1801548629637786 41.9244343030847944 20.8567184782760293
  7.1801548629637821 52.0784876809236223 20.8567184782760293
  7.1801548629637821 62.2325410587624575 20.8567184782760293
  7.1801548629637892 72.3865944366012712 20.8567184782760293
  7.1801548629637928 82.5406478144401063 20.8567184782760293
 17.3342082408026030 11.4622741695683246 20.8567184782760293
 17.3342082408026066 21.6163275474071526 20.8567184782760293
 17.3342082408025959 31.7703809252459841 20.8567184782760293
 17.3342082408026030 41.9244343030848015 20.8567184782760293
 17.3342082408026137 52.0784876809236223 20.8567184782760293
 17.3342082408026101 62.2325410587624575 20.8567184782760293
 17.3342082408026137 72.3865944366012855 20.8567184782760293
 17.3342082408026066 82.5406478144400921 20.8567184782760293
 -2.9738985148750423 82.5406478144400921 20.8567184782760293
 27.4882616186414275 21.6163275474071526 20.8567184782760293
 27.4882616186414310 31.7703809252459806 20.8567184782760293
 27.4882616186414310 41.9244343030848015 20.8567184782760293
 27.4882616186414310 52.0784876809236152 20.8567184782760293
 27.4882616186414417 62.2325410587624503 20.8567184782760293
 27.4882616186414168 72.3865944366012855 20.8567184782760293
 27.4882616186414275 82.5406478144400921 20.8567184782760293
 27.4882616186414275 92.6947011922789414 20.8567184782760293
 37.6423149964802306 21.6163275474071490 20.8567184782760293
 37.6423149964802377 31.7703809252459770 20.8567184782760293
 37.6423149964802519 41.9244343030847944 20.8567184782760293
 37.6423149964802448 52.0784876809236223 20.8567184782760293
 37.6423149964802448 62.2325410587624432 20.8567184782760293
 37.6423149964802519 72.3865944366012570 20.8567184782760293
 37.6423149964802519 82.5406478144400921 20.8567184782760293
 37.6423149964802519 92.6947011922789414 20.8567184782760293
 47.7963683743190728 21.6163275474071561 20.8567184782760293
 47.7963683743190728 31.7703809252459770 20.8567184782760293
 47.7963683743190728 41.9244343030848015 20.8567184782760293
 47.7963683743190728 52.0784876809236295 20.8567184782760293
 47.7963683743190728 62.2325410587624503 20.8567184782760293
 47.7963683743190728 72.3865944366012570 20.8567184782760293
 47.7963683743190799 82.5406478144400921 20.8567184782760293
 -23.2820052705527019 62.2325410587624575 20.8567184782760293
 57.9504217521578866 31.7703809252459770 20.8567184782760293
 57.9504217521578724 41.9244343030848015 20.8567184782760293
 57.9504217521578937 52.0784876809236295 20.8567184782760293
 -13.1279518927138668 31.7703809252459770 20.8567184782760293
 -13.1279518927138774 41.9244343030847944 20.8567184782760293
 68.1044751299967004 31.7703809252459628 20.8567184782760293
 -2.9738985148750618 11.4622741695683175 20.8567184782760293
 -2.9738985148750334 21.6163275474071597 20.8567184782760293
 -11.0271230594693712 52.6856086334674458 19.5663785222018127
 -11.0271230594693712 62.8396620113062596 19.5663785222018127
 -11.0271230594693748 72.9937153891450947 19.5663785222018127
 -0.8730696816305521 32.3775018777897969 19.5663785222018127
 -0.8730696816305539 42.5315552556286107 19.5663785222018127
 -0.8730696816305468 52.6856086334674458 19.5663785222018127
 -0.8730696816305468 62.8396620113062596 19.5663785222018127
 -0.8730696816305468 72.9937153891450947 19.5663785222018127
 -21.1811764373081957 72.9937153891450805 19.5663785222018127
  9.2809836962082706 12.0693951221121427 19.5663785222018127
  9.2809836962082670 22.2234484999509689 19.5663785222018127
  9.2809836962082723 32.3775018777898040 19.5663785222018127
  9.2809836962082777 42.5315552556286178 19.5663785222018127
  9.2809836962082741 52.6856086334674387 19.5663785222018127
  9.2809836962082741 62.8396620113062738 19.5663785222018127
  9.2809836962082670 72.9937153891450947 19.5663785222018127
  9.2809836962082777 83.1477687669839156 19.5663785222018127
 19.4350370740471021 12.0693951221121427 19.5663785222018127
 19.4350370740470986 22.2234484999509689 19.5663785222018127
 19.4350370740470879 32.3775018777897969 19.5663785222018127
 19.4350370740470915 42.5315552556286249 19.5663785222018127
 19.4350370740470950 52.6856086334674387 19.5663785222018127
 19.4350370740470986 62.8396620113062667 19.5663785222018127
 19.4350370740470950 72.9937153891450947 19.5663785222018127
 19.4350370740470986 83.1477687669839440 19.5663785222018127
 -0.8730696816305539 83.1477687669839014 19.5663785222018127
 29.5890904518859195 22.2234484999509689 19.5663785222018127
 29.5890904518859124 32.3775018777897969 19.5663785222018127
 29.5890904518859088 42.5315552556286249 19.5663785222018127
 29.5890904518859159 52.6856086334674387 19.5663785222018127
 29.5890904518859159 62.8396620113062596 19.5663785222018127
 29.5890904518859053 72.9937153891450947 19.5663785222018127
 29.5890904518859088 83.1477687669839156 19.5663785222018127
 29.5890904518859230 93.3018221448227507 19.5663785222018127
 39.7431438297247297 22.2234484999509725 19.5663785222018127
 39.7431438297247368 32.3775018777897827 19.5663785222018127
 39.7431438297247439 42.5315552556286107 19.5663785222018127
 39.7431438297247510 52.6856086334674387 19.5663785222018127
 39.7431438297247297 62.8396620113062738 19.5663785222018127
 39.7431438297247439 72.9937153891450947 19.5663785222018127
 39.7431438297247297 83.1477687669839156 19.5663785222018127
 39.7431438297247439 93.3018221448227649 19.5663785222018127
 49.8971972075635506 22.2234484999509618 19.5663785222018127
 49.8971972075635577 32.3775018777897827 19.5663785222018127
 49.8971972075635648 42.5315552556286178 19.5663785222018127
 49.8971972075635648 52.6856086334674387 19.5663785222018127
 49.8971972075635648 62.8396620113062596 19.5663785222018127
 49.8971972075635648 72.9937153891450805 19.5663785222018127
 -21.1811764373081957 52.6856086334674458 19.5663785222018127
 -21.1811764373082028 62.8396620113062667 19.5663785222018127
 60.0512505854023786 32.3775018777897969 19.5663785222018127
 60.0512505854023715 42.5315552556286107 19.5663785222018127
 60.0512505854023715 52.6856086334674387 19.5663785222018127
 -11.0271230594693819 32.3775018777897969 19.5663785222018127
 -11.0271230594693819 42.5315552556286178 19.5663785222018127
 70.2053039632411924 32.3775018777897756 19.5663785222018127
 -0.8730696816305605 12.0693951221121374 19.5663785222018127
 -0.8730696816305628 22.2234484999509618 19.5663785222018127
 -11.6454790853326653 54.3605291845172900 19.3748777124380496
 -11.6454790853326724 64.5145825623561109 19.3748777124380496
 -11.6454790853326671 74.6686359401949318 19.3748777124380496
 -1.4914257074938480 34.0524224288396340 19.3748777124380496
 -1.4914257074938480 44.2064758066784620 19.3748777124380496
 -1.4914257074938497 54.3605291845172900 19.3748777124380496
 -1.4914257074938497 64.5145825623561109 19.3748777124380496
 -1.4914257074938426 74.6686359401949460 19.3748777124380496
 -21.7995324631714951 74.6686359401949318 19.3748777124380496
  8.6626276703449712 13.7443156731619869 19.3748777124380496
  8.6626276703449729 23.8983690510008095 19.3748777124380496
  8.6626276703449800 34.0524224288396340 19.3748777124380496
  8.6626276703449729 44.2064758066784620 19.3748777124380496
  8.6626276703449712 54.3605291845172900 19.3748777124380496
  8.6626276703449747 64.5145825623561109 19.3748777124380496
  8.6626276703449747 74.6686359401949460 19.3748777124380496
  8.6626276703449747 84.8226893180337527 19.3748777124380496
 18.8166810481837956 13.7443156731619869 19.3748777124380496
 18.8166810481837956 23.8983690510008131 19.3748777124380496
 18.8166810481837992 34.0524224288396340 19.3748777124380496
 18.8166810481837885 44.2064758066784620 19.3748777124380496
 18.8166810481837956 54.3605291845172900 19.3748777124380496
 18.8166810481837956 64.5145825623561109 19.3748777124380496
 18.8166810481837956 74.6686359401949460 19.3748777124380496
 18.8166810481838098 84.8226893180337527 19.3748777124380496
 28.9707344260226130 13.7443156731619887 19.3748777124380496
 28.9707344260226272 23.8983690510008167 19.3748777124380496
 28.9707344260226165 34.0524224288396340 19.3748777124380496
 28.9707344260226236 44.2064758066784762 19.3748777124380496
 28.9707344260226236 54.3605291845172900 19.3748777124380496
 28.9707344260226094 64.5145825623561109 19.3748777124380496
 28.9707344260226094 74.6686359401949318 19.3748777124380496
 28.9707344260226201 84.8226893180337527 19.3748777124380496
 28.9707344260226414 94.9767426958725878 19.3748777124380496
 39.1247878038614374 23.8983690510008060 19.3748777124380496
 39.1247878038614374 34.0524224288396340 19.3748777124380496
 39.1247878038614516 44.2064758066784549 19.3748777124380496
 39.1247878038614374 54.3605291845172900 19.3748777124380496
 39.1247878038614374 64.5145825623561109 19.3748777124380496
 39.1247878038614374 74.6686359401949176 19.3748777124380496
 39.1247878038614658 84.8226893180337527 19.3748777124380496
 39.1247878038614587 94.9767426958725736 19.3748777124380496
 49.2788411817002654 23.8983690510008095 19.3748777124380496
 49.2788411817002725 34.0524224288396340 19.3748777124380496
 49.2788411817002725 44.2064758066784762 19.3748777124380496
 49.2788411817002583 54.3605291845172900 19.3748777124380496
 49.2788411817002583 64.5145825623561109 19.3748777124380496
 49.2788411817002725 74.6686359401949176 19.3748777124380496
 -21.7995324631714986 54.3605291845172829 19.3748777124380496
 -21.7995324631714880 64.5145825623561109 19.3748777124380496
 59.4328945595390792 34.0524224288396340 19.3748777124380496
 59.4328945595390721 44.2064758066784691 19.3748777124380496
 59.4328945595390721 54.3605291845172900 19.3748777124380496
 -11.6454790853326831 34.0524224288396411 19.3748777124380496
 -11.6454790853326813 44.2064758066784620 19.3748777124380496
 -1.4914257074938619  3.5902622953231584 19.3748777124380496
 -1.4914257074938653 13.7443156731619869 19.3748777124380496
 -1.4914257074938506 23.8983690510008238 19.3748777124380496
 -13.0857546740942094 51.7986725653039670 18.3764110234477371
 -13.0857546740942112 61.9527259431427950 18.3764110234477371
 -13.0857546740942094 72.1067793209816159 18.3764110234477371
 -2.9317012962553886 31.4905658096263288 18.3764110234477371
 -2.9317012962553850 41.6446191874651461 18.3764110234477371
 -2.9317012962553868 51.7986725653039812 18.3764110234477371
 -2.9317012962553868 61.9527259431427950 18.3764110234477371
 -2.9317012962553903 72.1067793209816159 18.3764110234477371
 -23.2398080519330392 72.1067793209816159 18.3764110234477371
  7.2223520815834359 11.1824590539486728 18.3764110234477371
  7.2223520815834368 21.3365124317874972 18.3764110234477371
  7.2223520815834359 31.4905658096263181 18.3764110234477371
  7.2223520815834341 41.6446191874651461 18.3764110234477371
  7.2223520815834341 51.7986725653039812 18.3764110234477371
  7.2223520815834377 61.9527259431428092 18.3764110234477371
  7.2223520815834377 72.1067793209816159 18.3764110234477371
  7.2223520815834412 82.2608326988204510 18.3764110234477371
 17.3764054594222586 11.1824590539486746 18.3764110234477371
 17.3764054594222586 21.3365124317874972 18.3764110234477371
 17.3764054594222586 31.4905658096263252 18.3764110234477371
 17.3764054594222586 41.6446191874651461 18.3764110234477371
 17.3764054594222586 51.7986725653039812 18.3764110234477371
 17.3764054594222657 61.9527259431427950 18.3764110234477371
 17.3764054594222479 72.1067793209816159 18.3764110234477371
 17.3764054594222515 82.2608326988204510 18.3764110234477371
 -2.9317012962553868 82.2608326988204226 18.3764110234477371
 27.5304588372610866 21.3365124317874972 18.3764110234477371
 27.5304588372610795 31.4905658096263181 18.3764110234477371
 27.5304588372610795 41.6446191874651532 18.3764110234477371
 27.5304588372610901 51.7986725653039883 18.3764110234477371
 27.5304588372610723 61.9527259431427950 18.3764110234477371
 27.5304588372610759 72.1067793209816159 18.3764110234477371
 27.5304588372610795 82.2608326988204510 18.3764110234477371
 27.5304588372610937 92.4148860766592577 18.3764110234477371
 37.6845122150999003 21.3365124317874972 18.3764110234477371
 37.6845122150999003 31.4905658096263146 18.3764110234477371
 37.6845122150999003 41.6446191874651390 18.3764110234477371
 37.6845122150999146 51.7986725653039670 18.3764110234477371
 37.6845122150999003 61.9527259431428092 18.3764110234477371
 37.6845122150999003 72.1067793209816017 18.3764110234477371
 37.6845122150999146 82.2608326988204510 18.3764110234477371
 37.6845122150999003 92.4148860766592719 18.3764110234477371
 47.8385655929387212 21.3365124317874901 18.3764110234477371
 47.8385655929387426 31.4905658096263217 18.3764110234477371
 47.8385655929387497 41.6446191874651603 18.3764110234477371
 47.8385655929387212 51.7986725653039883 18.3764110234477371
 47.8385655929387283 61.9527259431427950 18.3764110234477371
 47.8385655929387354 72.1067793209816017 18.3764110234477371
 47.8385655929387426 82.2608326988204510 18.3764110234477371
 -23.2398080519330357 61.9527259431428021 18.3764110234477371
 57.9926189707775492 31.4905658096263252 18.3764110234477371
 57.9926189707775492 41.6446191874651532 18.3764110234477371
 57.9926189707775492 51.7986725653039812 18.3764110234477371
 -13.0857546740942006 31.4905658096263288 18.3764110234477371
 -13.0857546740941899 41.6446191874651390 18.3764110234477371
 68.1466723486163630 31.4905658096263075 18.3764110234477371
 -2.9317012962553992 11.1824590539486781 18.3764110234477371
 -2.9317012962553992 21.3365124317874972 18.3764110234477371
 -12.0175743621838258 52.8385364113316882 17.3781512415680481
 -12.0175743621838276 62.9925897891705233 17.3781512415680481
 -12.0175743621838151 73.1466431670093442 17.3781512415680481
 -1.8635209843450014 32.5304296556540464 17.3781512415680481
 -1.8635209843450031 42.6844830334928744 17.3781512415680481
 -1.8635209843450014 52.8385364113316882 17.3781512415680481
 -1.8635209843450014 62.9925897891705233 17.3781512415680481
 -1.8635209843450049 73.1466431670093442 17.3781512415680481
 -22.1716277400226502 73.1466431670093442 17.3781512415680481
  8.2905323934938231 12.2223228999763904 17.3781512415680481
  8.2905323934938231 22.3763762778152184 17.3781512415680481
  8.2905323934938213 32.5304296556540393 17.3781512415680481
  8.2905323934938213 42.6844830334928602 17.3781512415680481
  8.2905323934938231 52.8385364113317024 17.3781512415680481
  8.2905323934938231 62.9925897891705091 17.3781512415680481
  8.2905323934938266 73.1466431670093442 17.3781512415680481
  8.2905323934938338 83.3006965448481651 17.3781512415680481
 18.4445857713326440 12.2223228999763904 17.3781512415680481
 18.4445857713326369 22.3763762778152184 17.3781512415680481
 18.4445857713326404 32.5304296556540464 17.3781512415680481
 18.4445857713326404 42.6844830334928602 17.3781512415680481
 18.4445857713326511 52.8385364113316953 17.3781512415680481
 18.4445857713326475 62.9925897891705091 17.3781512415680481
 18.4445857713326333 73.1466431670093442 17.3781512415680481
 18.4445857713326440 83.3006965448481651 17.3781512415680481
 -1.8635209843450085 83.3006965448481509 17.3781512415680481
 28.5986391491714755 22.3763762778152184 17.3781512415680481
 28.5986391491714755 32.5304296556540464 17.3781512415680481
 28.5986391491714755 42.6844830334928744 17.3781512415680481
 28.5986391491714613 52.8385364113316882 17.3781512415680481
 28.5986391491714542 62.9925897891705162 17.3781512415680481
 28.5986391491714542 73.1466431670093442 17.3781512415680481
 28.5986391491714684 83.3006965448481651 17.3781512415680481
 28.5986391491714755 93.4547499226870144 17.3781512415680481
 38.7526925270102822 22.3763762778152113 17.3781512415680481
 38.7526925270102822 32.5304296556540322 17.3781512415680481
 38.7526925270102751 42.6844830334928531 17.3781512415680481
 38.7526925270102893 52.8385364113316882 17.3781512415680481
 38.7526925270102822 62.9925897891705091 17.3781512415680481
 38.7526925270102964 73.1466431670093442 17.3781512415680481
 38.7526925270102822 83.3006965448481793 17.3781512415680481
 38.7526925270102964 93.4547499226870002 17.3781512415680481
 48.9067459048491031 22.3763762778152113 17.3781512415680481
 48.9067459048491244 32.5304296556540322 17.3781512415680481
 48.9067459048491244 42.6844830334928744 17.3781512415680481
 48.9067459048491102 52.8385364113316882 17.3781512415680481
 48.9067459048491031 62.9925897891705091 17.3781512415680481
 48.9067459048491173 73.1466431670093442 17.3781512415680481
 -22.1716277400226360 52.8385364113317024 17.3781512415680481
 -22.1716277400226538 62.9925897891705162 17.3781512415680481
 59.0607992826879311 32.5304296556540464 17.3781512415680481
 59.0607992826879240 42.6844830334928602 17.3781512415680481
 59.0607992826879453 52.8385364113316882 17.3781512415680481
 -12.0175743621838222 32.5304296556540464 17.3781512415680481
 -12.0175743621838258 42.6844830334928815 17.3781512415680481
 69.2148526605267449 32.5304296556540251 17.3781512415680481
 -1.8635209843450329 12.2223228999763833 17.3781512415680481
 -1.8635209843450005 22.3763762778152149 17.3781512415680481
 -13.5309705234157658 54.7196007402164710 17.8881802496303557
 -13.5309705234157622 64.8736541180552848 17.8881802496303557
 -13.5309705234157658 75.0277074958941199 17.8881802496303557
 -3.3769171455769431 34.4114939845388150 17.8881802496303557
 -3.3769171455769449 44.5655473623776430 17.8881802496303557
 -3.3769171455769467 54.7196007402164710 17.8881802496303557
 -3.3769171455769396 64.8736541180552848 17.8881802496303557
 -3.3769171455769396 75.0277074958941199 17.8881802496303557
  6.7771362322618760  3.9493338510223439 17.8881802496303557
  6.7771362322618760 14.1033872288611697 17.8881802496303557
  6.7771362322618787 24.2574406066999941 17.8881802496303557
  6.7771362322618778 34.4114939845388150 17.8881802496303557
  6.7771362322618760 44.5655473623776572 17.8881802496303557
  6.7771362322618778 54.7196007402164710 17.8881802496303557
  6.7771362322618849 64.8736541180552848 17.8881802496303557
  6.7771362322618742 75.0277074958941199 17.8881802496303557
  6.7771362322618742 85.1817608737329408 17.8881802496303557
 16.9311896101007058 14.1033872288611697 17.8881802496303557
 16.9311896101006987 24.2574406066999941 17.8881802496303557
 16.9311896101007093 34.4114939845388150 17.8881802496303557
 16.9311896101006951 44.5655473623776430 17.8881802496303557
 16.9311896101006951 54.7196007402164781 17.8881802496303557
 16.9311896101007058 64.8736541180552848 17.8881802496303557
 16.9311896101007093 75.0277074958941199 17.8881802496303557
 16.9311896101007058 85.1817608737329408 17.8881802496303557
 27.0852429879395160 14.1033872288611679 17.8881802496303557
 27.0852429879395302 24.2574406067000012 17.8881802496303557
 27.0852429879395373 34.4114939845388221 17.8881802496303557
 27.0852429879395231 44.5655473623776430 17.8881802496303557
 27.0852429879395196 54.7196007402164710 17.8881802496303557
 27.0852429879395302 64.8736541180552848 17.8881802496303557
 27.0852429879395125 75.0277074958941199 17.8881802496303557
 27.0852429879395125 85.1817608737329408 17.8881802496303557
 27.0852429879395302 95.3358142515717901 17.8881802496303557
 37.2392963657783369 24.2574406066999906 17.8881802496303557
 37.2392963657783369 34.4114939845388150 17.8881802496303557
 37.2392963657783440 44.5655473623776430 17.8881802496303557
 37.2392963657783511 54.7196007402164781 17.8881802496303557
 37.2392963657783369 64.8736541180552848 17.8881802496303557
 37.2392963657783582 75.0277074958941057 17.8881802496303557
 37.2392963657783369 85.1817608737329408 17.8881802496303557
 37.2392963657783440 95.3358142515717901 17.8881802496303557
 47.3933497436171720 24.2574406066999977 17.8881802496303557
 47.3933497436171720 34.4114939845388150 17.8881802496303557
 47.3933497436171720 44.5655473623776430 17.8881802496303557
 47.3933497436171649 54.7196007402164710 17.8881802496303557
 47.3933497436171649 64.8736541180552848 17.8881802496303557
 47.3933497436171649 75.0277074958941057 17.8881802496303557
 47.3933497436171791 85.1817608737329692 17.8881802496303557
 -23.6850239012545920 64.8736541180552990 17.8881802496303557
 57.5474031214560000 34.4114939845388150 17.8881802496303557
 57.5474031214559716 44.5655473623776430 17.8881802496303557
 57.5474031214560071 54.7196007402164710 17.8881802496303557
 -13.5309705234157729 34.4114939845388150 17.8881802496303557
 -13.5309705234157711 44.5655473623776430 17.8881802496303557
 67.7014564992948067 34.4114939845388079 17.8881802496303557
 -3.3769171455769733 14.1033872288611644 17.8881802496303557
 -3.3769171455769422 24.2574406067000048 17.8881802496303557
 -14.2425113472191462 53.4574809229213415 17.0000000000000000
 -14.2425113472191391 63.6115343007601695 17.0000000000000000
 -14.2425113472191338 73.7655876785990046 17.0000000000000000
 -4.0884579693803165 33.1493741672437068 17.0000000000000000
 -4.0884579693803182 43.3034275450825277 17.0000000000000000
 -4.0884579693803147 53.4574809229213486 17.0000000000000000
 -4.0884579693803182 63.6115343007601695 17.0000000000000000
 -4.0884579693803147 73.7655876785990046 17.0000000000000000
  6.0655954084585018  2.6872140337272272 17.0000000000000000
  6.0655954084585044 12.8412674115660508 17.0000000000000000
  6.0655954084585026 22.9953207894048788 17.0000000000000000
  6.0655954084585080 33.1493741672437068 17.0000000000000000
  6.0655954084585009 43.3034275450825277 17.0000000000000000
  6.0655954084585026 53.4574809229213486 17.0000000000000000
  6.0655954084585098 63.6115343007601837 17.0000000000000000
  6.0655954084585098 73.7655876785990046 17.0000000000000000
  6.0655954084585098 83.9196410564378397 17.0000000000000000
 16.2196487862973271 12.8412674115660543 17.0000000000000000
 16.2196487862973306 22.9953207894048788 17.0000000000000000
 16.2196487862973271 33.1493741672437068 17.0000000000000000
 16.2196487862973200 43.3034275450825277 17.0000000000000000
 16.2196487862973342 53.4574809229213486 17.0000000000000000
 16.2196487862973200 63.6115343007601695 17.0000000000000000
 16.2196487862973306 73.7655876785990188 17.0000000000000000
 16.2196487862973378 83.9196410564378397 17.0000000000000000
 26.3737021641361444 12.8412674115660526 17.0000000000000000
 26.3737021641361551 22.9953207894048788 17.0000000000000000
 26.3737021641361480 33.1493741672436997 17.0000000000000000
 26.3737021641361551 43.3034275450825348 17.0000000000000000
 26.3737021641361551 53.4574809229213557 17.0000000000000000
 26.3737021641361551 63.6115343007601695 17.0000000000000000
 26.3737021641361586 73.7655876785990188 17.0000000000000000
 26.3737021641361586 83.9196410564378397 17.0000000000000000
 26.3737021641361444 94.0736944342766606 17.0000000000000000
 36.5277555419749689 22.9953207894048788 17.0000000000000000
 36.5277555419749618 33.1493741672436926 17.0000000000000000
 36.5277555419749689 43.3034275450825135 17.0000000000000000
 36.5277555419749689 53.4574809229213486 17.0000000000000000
 36.5277555419749689 63.6115343007601837 17.0000000000000000
 36.5277555419749689 73.7655876785989904 17.0000000000000000
 36.5277555419749689 83.9196410564378255 17.0000000000000000
 36.5277555419749831 94.0736944342766606 17.0000000000000000
 46.6818089198137827 22.9953207894048717 17.0000000000000000
 46.6818089198137898 33.1493741672436926 17.0000000000000000
 46.6818089198137898 43.3034275450825348 17.0000000000000000
 46.6818089198137969 53.4574809229213486 17.0000000000000000
 46.6818089198138040 63.6115343007601837 17.0000000000000000
 46.6818089198138040 73.7655876785990188 17.0000000000000000
 46.6818089198137898 83.9196410564378255 17.0000000000000000
 -24.3965647250579671 63.6115343007601908 17.0000000000000000
 56.8358622976526107 33.1493741672436926 17.0000000000000000
 56.8358622976526178 43.3034275450825419 17.0000000000000000
 56.8358622976526178 53.4574809229213486 17.0000000000000000
 56.8358622976526178 63.6115343007601766 17.0000000000000000
 -14.2425113472191427 43.3034275450825348 17.0000000000000000
 66.9899156754914316 33.1493741672436926 17.0000000000000000
 -4.0884579693803369 12.8412674115660472 17.0000000000000000
 -4.0884579693803218 22.9953207894048788 17.0000000000000000
 -14.6005810828149727 53.6185407947119614 18.6484380999944861
 -14.6005810828149691 63.7725941725507894 18.6484380999944861
 -14.6005810828149727 73.9266475503896174 18.6484380999944861
 -4.4465277049761500 33.3104340390343197 18.6484380999944861
 -4.4465277049761411 43.4644874168731405 18.6484380999944861
 -4.4465277049761447 53.6185407947119685 18.6484380999944861
 -4.4465277049761411 63.7725941725507894 18.6484380999944861
 -4.4465277049761553 73.9266475503896174 18.6484380999944861
  5.7075256728626691  2.8482739055178414 18.6484380999944861
  5.7075256728626726 13.0023272833566672 18.6484380999944861
  5.7075256728626700 23.1563806611954917 18.6484380999944861
  5.7075256728626762 33.3104340390343125 18.6484380999944861
  5.7075256728626762 43.4644874168731405 18.6484380999944861
  5.7075256728626726 53.6185407947119756 18.6484380999944861
  5.7075256728626726 63.7725941725507823 18.6484380999944861
  5.7075256728626762 73.9266475503896174 18.6484380999944861
  5.7075256728626833 84.0807009282284383 18.6484380999944861
 15.8615790507014953 13.0023272833566672 18.6484380999944861
 15.8615790507014953 23.1563806611954917 18.6484380999944861
 15.8615790507014971 33.3104340390343197 18.6484380999944861
 15.8615790507014989 43.4644874168731405 18.6484380999944861
 15.8615790507015042 53.6185407947119756 18.6484380999944861
 15.8615790507015042 63.7725941725508036 18.6484380999944861
 15.8615790507014793 73.9266475503896174 18.6484380999944861
 15.8615790507015006 84.0807009282284383 18.6484380999944861
 26.0156324285403109 13.0023272833566654 18.6484380999944861
 26.0156324285403180 23.1563806611954917 18.6484380999944861
 26.0156324285403180 33.3104340390343125 18.6484380999944861
 26.0156324285403251 43.4644874168731405 18.6484380999944861
 26.0156324285403215 53.6185407947119756 18.6484380999944861
 26.0156324285403286 63.7725941725508036 18.6484380999944861
 26.0156324285403002 73.9266475503896174 18.6484380999944861
 26.0156324285403215 84.0807009282284525 18.6484380999944861
 26.0156324285403286 94.2347543060672592 18.6484380999944861
 36.1696858063791282 23.1563806611954952 18.6484380999944861
 36.1696858063791424 33.3104340390343197 18.6484380999944861
 36.1696858063791424 43.4644874168731405 18.6484380999944861
 36.1696858063791353 53.6185407947119614 18.6484380999944861
 36.1696858063791353 63.7725941725507823 18.6484380999944861
 36.1696858063791424 73.9266475503896032 18.6484380999944861
 36.1696858063791566 84.0807009282284241 18.6484380999944861
 36.1696858063791495 94.2347543060672876 18.6484380999944861
 46.3237391842179704 23.1563806611954952 18.6484380999944861
 46.3237391842179775 33.3104340390343268 18.6484380999944861
 46.3237391842179846 43.4644874168731405 18.6484380999944861
 46.3237391842179562 53.6185407947119756 18.6484380999944861
 46.3237391842179704 63.7725941725507894 18.6484380999944861
 46.3237391842179562 73.9266475503896032 18.6484380999944861
 46.3237391842179704 84.0807009282284383 18.6484380999944861
 -24.7546344606537936 63.7725941725507965 18.6484380999944861
 56.4777925620567842 33.3104340390343268 18.6484380999944861
 56.4777925620567913 43.4644874168731548 18.6484380999944861
 56.4777925620567913 53.6185407947119756 18.6484380999944861
 56.4777925620567913 63.7725941725507965 18.6484380999944861
 -14.6005810828149709 43.4644874168731334 18.6484380999944861
 66.6318459398955980 33.3104340390343054 18.6484380999944861
 -4.4465277049761731 13.0023272833566725 18.6484380999944861
 -4.4465277049761580 23.1563806611954988 18.6484380999944861
 -17.7824553820007658 58.3813193287719301 29.9104073287120826
 -17.7824553820007694 68.5353727066107439 29.9104073287120826
 12.6797047515157040  7.6110524395778221 29.9104073287120826
 -7.6284020041619396 38.0732125730942741 29.9104073287120826
 -7.6284020041619485 48.2272659509331163 29.9104073287120826
 -7.6284020041619431 58.3813193287719301 29.9104073287120826
 -7.6284020041619485 68.5353727066107439 29.9104073287120826
 -7.6284020041619414 78.6894260844496074 29.9104073287120826
  2.5256513736768755  7.6110524395778034 29.9104073287120826
  2.5256513736768760 17.7651058174166252 29.9104073287120826
  2.5256513736768795 27.9191591952554496 29.9104073287120826
  2.5256513736768831 38.0732125730942741 29.9104073287120826
  2.5256513736768831 48.2272659509331092 29.9104073287120826
  2.5256513736768795 58.3813193287719443 29.9104073287120826
  2.5256513736768831 68.5353727066107439 29.9104073287120826
  2.5256513736768760 78.6894260844496074 29.9104073287120826
 32.9878115071933493 17.7651058174166430 29.9104073287120826
 12.6797047515157004 17.7651058174166252 29.9104073287120826
 12.6797047515156969 27.9191591952554532 29.9104073287120826
 12.6797047515157075 38.0732125730942812 29.9104073287120826
 12.6797047515156933 48.2272659509331021 29.9104073287120826
 12.6797047515157040 58.3813193287719372 29.9104073287120826
 12.6797047515157040 68.5353727066107581 29.9104073287120826
 12.6797047515157004 78.6894260844496074 29.9104073287120826
 12.6797047515157182 88.8434794622883999 29.9104073287120826
 22.8337581293545142 17.7651058174166252 29.9104073287120826
 22.8337581293545355 27.9191591952554496 29.9104073287120826
 22.8337581293545320 38.0732125730942812 29.9104073287120826
 22.8337581293545178 48.2272659509331021 29.9104073287120826
 22.8337581293545178 58.3813193287719301 29.9104073287120826
 22.8337581293545213 68.5353727066107439 29.9104073287120826
 22.8337581293545036 78.6894260844495932 29.9104073287120826
 22.8337581293545178 88.8434794622884283 29.9104073287120826
 53.2959182628709982 27.9191591952554532 29.9104073287120826
 32.9878115071933351 27.9191591952554532 29.9104073287120826
 32.9878115071933351 38.0732125730942670 29.9104073287120826
 32.9878115071933422 48.2272659509331021 29.9104073287120826
 32.9878115071933493 58.3813193287719372 29.9104073287120826
 32.9878115071933280 68.5353727066107439 29.9104073287120826
 32.9878115071933422 78.6894260844495648 29.9104073287120826
 32.9878115071933422 88.8434794622884141 29.9104073287120826
 63.4499716407098191 27.9191591952554532 29.9104073287120826
 43.1418648850321631 27.9191591952554532 29.9104073287120826
 43.1418648850321631 38.0732125730942741 29.9104073287120826
 43.1418648850321702 48.2272659509331021 29.9104073287120826
 43.1418648850321631 58.3813193287719230 29.9104073287120826
 43.1418648850321631 68.5353727066107439 29.9104073287120826
 43.1418648850321702 78.6894260844495648 29.9104073287120826
 43.1418648850321631 88.8434794622883999 29.9104073287120826
 -27.9365087598395938 68.5353727066107439 29.9104073287120826
 53.2959182628709982 38.0732125730942741 29.9104073287120826
 53.2959182628709840 48.2272659509331163 29.9104073287120826
 53.2959182628710053 58.3813193287719301 29.9104073287120826
 53.2959182628709769 68.5353727066107439 29.9104073287120826
 -17.7824553820007729 48.2272659509330879 29.9104073287120826
 63.4499716407098191 38.0732125730942812 29.9104073287120826
 63.4499716407097907 48.2272659509330879 29.9104073287120826
 -7.6284020041619449 27.9191591952554639 29.9104073287120826
 -17.0000928757646967 58.2308801937104619 31.1369658172089991
 -17.0000928757647003 68.3849335715492828 31.1369658172089991
 13.4620672577517748  7.4606133045163432 31.1369658172089991
 -6.8460394979258776 37.9227734380328130 31.1369658172089991
 -6.8460394979258794 48.0768268158716481 31.1369658172089991
 -6.8460394979258758 58.2308801937104619 31.1369658172089991
 -6.8460394979258723 68.3849335715492828 31.1369658172089991
 -6.8460394979258794 78.5389869493881037 31.1369658172089991
  3.3080138799129450  7.4606133045163343 31.1369658172089991
  3.3080138799129468 17.6146666823551605 31.1369658172089991
  3.3080138799129450 27.7687200601939850 31.1369658172089991
  3.3080138799129450 37.9227734380328059 31.1369658172089991
  3.3080138799129450 48.0768268158716339 31.1369658172089991
  3.3080138799129486 58.2308801937104619 31.1369658172089991
  3.3080138799129450 68.3849335715492828 31.1369658172089991
  3.3080138799129450 78.5389869493881179 31.1369658172089991
 33.7701740134294113 17.6146666823551747 31.1369658172089991
 13.4620672577517695 17.6146666823551641 31.1369658172089991
 13.4620672577517659 27.7687200601939850 31.1369658172089991
 13.4620672577517642 37.9227734380328059 31.1369658172089991
 13.4620672577517713 48.0768268158716339 31.1369658172089991
 13.4620672577517659 58.2308801937104619 31.1369658172089991
 13.4620672577517766 68.3849335715492970 31.1369658172089991
 13.4620672577517766 78.5389869493881179 31.1369658172089991
 13.4620672577517730 88.6930403272269245 31.1369658172089991
 23.6161206355905975 17.6146666823551641 31.1369658172089991
 23.6161206355905939 27.7687200601939850 31.1369658172089991
 23.6161206355905904 37.9227734380328201 31.1369658172089991
 23.6161206355905904 48.0768268158716481 31.1369658172089991
 23.6161206355905939 58.2308801937104619 31.1369658172089991
 23.6161206355905939 68.3849335715492828 31.1369658172089991
 23.6161206355905833 78.5389869493881179 31.1369658172089991
 23.6161206355905939 88.6930403272269245 31.1369658172089991
 54.0782807691070815 27.7687200601939885 31.1369658172089991
 33.7701740134294042 27.7687200601939779 31.1369658172089991
 33.7701740134294042 37.9227734380328059 31.1369658172089991
 33.7701740134294113 48.0768268158716268 31.1369658172089991
 33.7701740134294042 58.2308801937104619 31.1369658172089991
 33.7701740134294113 68.3849335715492828 31.1369658172089991
 33.7701740134294113 78.5389869493880894 31.1369658172089991
 33.7701740134294184 88.6930403272269245 31.1369658172089991
 64.2323341469459024 27.7687200601939743 31.1369658172089991
 43.9242273912682251 27.7687200601939779 31.1369658172089991
 43.9242273912682322 37.9227734380328059 31.1369658172089991
 43.9242273912682535 48.0768268158716410 31.1369658172089991
 43.9242273912682393 58.2308801937104619 31.1369658172089991
 43.9242273912682464 68.3849335715492970 31.1369658172089991
 43.9242273912682322 78.5389869493880894 31.1369658172089991
 43.9242273912682606 88.6930403272269245 31.1369658172089991
 -27.1541462536035176 68.3849335715492828 31.1369658172089991
 54.0782807691070531 37.9227734380328130 31.1369658172089991
 54.0782807691070531 48.0768268158716481 31.1369658172089991
 54.0782807691070531 58.2308801937104619 31.1369658172089991
 54.0782807691070531 68.3849335715492828 31.1369658172089991
 -17.0000928757646967 48.0768268158716268 31.1369658172089991
 64.2323341469458597 37.9227734380328059 31.1369658172089991
 -6.8460394979258989 17.6146666823551570 31.1369658172089991
 -6.8460394979258847 27.7687200601939921 31.1369658172089991
 -17.8463335594534840 58.5662928472746671 32.3724910513971196
 -17.8463335594534875 68.7203462251135022 32.3724910513971196
 12.6158265740629787  7.7960259580805662 32.3724910513971196
 -7.6922801816146711 38.2581860915970182 32.3724910513971196
 -7.6922801816146631 48.4122394694358391 32.3724910513971196
 -7.6922801816146631 58.5662928472746813 32.3724910513971196
 -7.6922801816146666 68.7203462251134880 32.3724910513971196
 -7.6922801816146666 78.8743996029523231 32.3724910513971196
  2.4617731962241525  7.7960259580805493 32.3724910513971196
  2.4617731962241516 17.9500793359193729 32.3724910513971196
  2.4617731962241507 28.1041327137582080 32.3724910513971196
  2.4617731962241542 38.2581860915970182 32.3724910513971196
  2.4617731962241578 48.4122394694358462 32.3724910513971196
  2.4617731962241614 58.5662928472746813 32.3724910513971196
  2.4617731962241578 68.7203462251134880 32.3724910513971196
  2.4617731962241578 78.8743996029523231 32.3724910513971196
 32.9239333297406276 17.9500793359193871 32.3724910513971196
 12.6158265740629769 17.9500793359193764 32.3724910513971196
 12.6158265740629822 28.1041327137582009 32.3724910513971196
 12.6158265740629698 38.2581860915970253 32.3724910513971196
 12.6158265740629822 48.4122394694358462 32.3724910513971196
 12.6158265740629822 58.5662928472746813 32.3724910513971196
 12.6158265740629716 68.7203462251134880 32.3724910513971196
 12.6158265740629716 78.8743996029523231 32.3724910513971196
 12.6158265740629822 89.0284529807911440 32.3724910513971196
 22.7698799519017925 17.9500793359193693 32.3724910513971196
 22.7698799519017996 28.1041327137582009 32.3724910513971196
 22.7698799519017960 38.2581860915970182 32.3724910513971196
 22.7698799519018138 48.4122394694358462 32.3724910513971196
 22.7698799519018102 58.5662928472746813 32.3724910513971196
 22.7698799519017960 68.7203462251135022 32.3724910513971196
 22.7698799519017889 78.8743996029523373 32.3724910513971196
 22.7698799519017996 89.0284529807911440 32.3724910513971196
 53.2320400854182765 28.1041327137581973 32.3724910513971196
 32.9239333297406205 28.1041327137582044 32.3724910513971196
 32.9239333297406205 38.2581860915970253 32.3724910513971196
 32.9239333297406205 48.4122394694358462 32.3724910513971196
 32.9239333297406205 58.5662928472746671 32.3724910513971196
 32.9239333297406205 68.7203462251134880 32.3724910513971196
 32.9239333297406205 78.8743996029523089 32.3724910513971196
 32.9239333297406134 89.0284529807911440 32.3724910513971196
 63.3860934632570974 28.1041327137582080 32.3724910513971196
 43.0779867075794343 28.1041327137581938 32.3724910513971196
 43.0779867075794343 38.2581860915970253 32.3724910513971196
 43.0779867075794485 48.4122394694358462 32.3724910513971196
 43.0779867075794485 58.5662928472746813 32.3724910513971196
 43.0779867075794414 68.7203462251134880 32.3724910513971196
 43.0779867075794414 78.8743996029523089 32.3724910513971196
 43.0779867075794698 89.0284529807911582 32.3724910513971196
 -28.0003869372923120 68.7203462251135022 32.3724910513971196
 53.2320400854182765 38.2581860915970253 32.3724910513971196
 53.2320400854182694 48.4122394694358462 32.3724910513971196
 53.2320400854182623 58.5662928472746671 32.3724910513971196
 53.2320400854182623 68.7203462251135022 32.3724910513971196
 -17.8463335594534946 48.4122394694358391 32.3724910513971196
 63.3860934632570761 38.2581860915970111 32.3724910513971196
 -7.6922801816146951 17.9500793359193764 32.3724910513971196
 -7.6922801816146755 28.1041327137581973 32.3724910513971196
 -17.0294075127486053 58.3965856545316981 33.6613989165339831
 -17.0294075127486089 68.5506390323705119 33.6613989165339831
 13.4327526207678645  7.6263187653375759 33.6613989165339831
 -6.8753541349097818 38.0884788988540350 33.6613989165339831
 -6.8753541349097862 48.2425322766928701 33.6613989165339831
 -6.8753541349097844 58.3965856545316910 33.6613989165339831
 -6.8753541349097773 68.5506390323705261 33.6613989165339831
 -6.8753541349097809 78.7046924102093612 33.6613989165339831
  3.2786992429290391  7.6263187653375670 33.6613989165339831
  3.2786992429290374 17.7803721431763897 33.6613989165339831
  3.2786992429290418 27.9344255210152141 33.6613989165339831
  3.2786992429290418 38.0884788988540350 33.6613989165339831
  3.2786992429290400 48.2425322766928772 33.6613989165339831
  3.2786992429290329 58.3965856545316910 33.6613989165339831
  3.2786992429290400 68.5506390323705261 33.6613989165339831
  3.2786992429290365 78.7046924102093328 33.6613989165339831
 33.7408593764455134 17.7803721431764110 33.6613989165339831
 13.4327526207678609 17.7803721431763933 33.6613989165339831
 13.4327526207678609 27.9344255210152141 33.6613989165339831
 13.4327526207678609 38.0884788988540350 33.6613989165339831
 13.4327526207678591 48.2425322766928701 33.6613989165339831
 13.4327526207678609 58.3965856545316910 33.6613989165339831
 13.4327526207678645 68.5506390323705261 33.6613989165339831
 13.4327526207678716 78.7046924102093328 33.6613989165339831
 13.4327526207678680 88.8587457880481821 33.6613989165339831
 23.5868059986066783 17.7803721431763861 33.6613989165339831
 23.5868059986066925 27.9344255210152141 33.6613989165339831
 23.5868059986066925 38.0884788988540492 33.6613989165339831
 23.5868059986066783 48.2425322766928701 33.6613989165339831
 23.5868059986066783 58.3965856545316910 33.6613989165339831
 23.5868059986066783 68.5506390323705119 33.6613989165339831
 23.5868059986066747 78.7046924102093328 33.6613989165339831
 23.5868059986066712 88.8587457880481679 33.6613989165339831
 54.0489661321231694 27.9344255210152141 33.6613989165339831
 33.7408593764455134 27.9344255210152141 33.6613989165339831
 33.7408593764454992 38.0884788988540350 33.6613989165339831
 33.7408593764454992 48.2425322766928559 33.6613989165339831
 33.7408593764455134 58.3965856545316910 33.6613989165339831
 33.7408593764455134 68.5506390323705261 33.6613989165339831
 33.7408593764455134 78.7046924102093328 33.6613989165339831
 33.7408593764454992 88.8587457880481963 33.6613989165339831
 64.2030195099619903 27.9344255210152141 33.6613989165339831
 43.8949127542843271 27.9344255210152177 33.6613989165339831
 43.8949127542843343 38.0884788988540421 33.6613989165339831
 43.8949127542843343 48.2425322766928630 33.6613989165339831
 43.8949127542843271 58.3965856545316910 33.6613989165339831
 43.8949127542843343 68.5506390323705261 33.6613989165339831
 43.8949127542843485 78.7046924102093612 33.6613989165339831
 43.8949127542843343 88.8587457880481679 33.6613989165339831
 -27.1834608905874262 68.5506390323704977 33.6613989165339831
 54.0489661321231623 38.0884788988540350 33.6613989165339831
 54.0489661321231409 48.2425322766928701 33.6613989165339831
 54.0489661321231480 58.3965856545316839 33.6613989165339831
 54.0489661321231409 68.5506390323705261 33.6613989165339831
 -17.0294075127485911 48.2425322766928701 33.6613989165339831
 64.2030195099619903 38.0884788988540421 33.6613989165339831
 -6.8753541349097951 17.7803721431763897 33.6613989165339831
 -6.8753541349097764 27.9344255210152141 33.6613989165339831
 -17.7985239910642292 58.8534684527710255 34.9122849291930493
 -17.7985239910642292 69.0075218306098321 34.9122849291930493
 12.6636361424522406  8.0832015635769121 34.9122849291930493
 -7.6444706132254048 38.5453616970933695 34.9122849291930493
 -7.6444706132254048 48.6994150749321975 34.9122849291930493
 -7.6444706132254012 58.8534684527710183 34.9122849291930493
 -7.6444706132254012 69.0075218306098463 34.9122849291930493
 -7.6444706132254048 79.1615752084486957 34.9122849291930493
  2.5095827646134166  8.0832015635768890 34.9122849291930493
  2.5095827646134152 18.2372549414157135 34.9122849291930493
  2.5095827646134214 28.3913083192545415 34.9122849291930493
  2.5095827646134179 38.5453616970933695 34.9122849291930493
  2.5095827646134126 48.6994150749322117 34.9122849291930493
  2.5095827646134197 58.8534684527710041 34.9122849291930493
  2.5095827646134268 69.0075218306098321 34.9122849291930493
  2.5095827646134197 79.1615752084486815 34.9122849291930493
 32.9717428981298966 18.2372549414157277 34.9122849291930493
 12.6636361424522423 18.2372549414157135 34.9122849291930493
 12.6636361424522459 28.3913083192545450 34.9122849291930493
 12.6636361424522370 38.5453616970933695 34.9122849291930493
 12.6636361424522423 48.6994150749321904 34.9122849291930493
 12.6636361424522441 58.8534684527710041 34.9122849291930493
 12.6636361424522335 69.0075218306098321 34.9122849291930493
 12.6636361424522299 79.1615752084486672 34.9122849291930493
 12.6636361424522512 89.3156285862874881 34.9122849291930493
 22.8176895202910650 18.2372549414157135 34.9122849291930493
 22.8176895202910650 28.3913083192545415 34.9122849291930493
 22.8176895202910650 38.5453616970933695 34.9122849291930493
 22.8176895202910686 48.6994150749322046 34.9122849291930493
 22.8176895202910686 58.8534684527710112 34.9122849291930493
 22.8176895202910686 69.0075218306098463 34.9122849291930493
 22.8176895202910508 79.1615752084486672 34.9122849291930493
 22.8176895202910437 89.3156285862874881 34.9122849291930493
 53.2798496538075312 28.3913083192545521 34.9122849291930493
 32.9717428981298752 28.3913083192545344 34.9122849291930493
 32.9717428981298752 38.5453616970933552 34.9122849291930493
 32.9717428981298752 48.6994150749321761 34.9122849291930493
 32.9717428981298966 58.8534684527710112 34.9122849291930493
 32.9717428981298823 69.0075218306098463 34.9122849291930493
 32.9717428981298823 79.1615752084486530 34.9122849291930493
 32.9717428981298752 89.3156285862874881 34.9122849291930493
 63.4339030316463521 28.3913083192545521 34.9122849291930493
 43.1257962759686890 28.3913083192545344 34.9122849291930493
 43.1257962759687103 38.5453616970933552 34.9122849291930493
 43.1257962759687103 48.6994150749321904 34.9122849291930493
 43.1257962759687246 58.8534684527710112 34.9122849291930493
 43.1257962759686961 69.0075218306098463 34.9122849291930493
 43.1257962759687246 79.1615752084486672 34.9122849291930493
 43.1257962759687103 89.3156285862874881 34.9122849291930493
 -27.9525773689030608 69.0075218306098463 34.9122849291930493
 53.2798496538075241 38.5453616970933552 34.9122849291930493
 53.2798496538075099 48.6994150749321975 34.9122849291930493
 53.2798496538075312 58.8534684527710112 34.9122849291930493
 53.2798496538075455 69.0075218306098463 34.9122849291930493
 -17.7985239910642257 48.6994150749321904 34.9122849291930493
 63.4339030316463450 38.5453616970933552 34.9122849291930493
 -7.6444706132254225 18.2372549414157099 34.9122849291930493
 -7.6444706132254066 28.3913083192545450 34.9122849291930493
 -18.9252126682513762 57.9706440705492767 35.2210765872877118
 -18.9252126682513655 68.1246974483880621 35.2210765872877118
 11.5369474652650990  7.2003771813551438 35.2210765872877118
 -8.7711592904125482 37.6625373148716207 35.2210765872877118
 -8.7711592904125482 47.8165906927104416 35.2210765872877118
 -8.7711592904125482 57.9706440705492696 35.2210765872877118
 -8.7711592904125482 68.1246974483880763 35.2210765872877118
 -8.7711592904125482 78.2787508262269256 35.2210765872877118
  1.3828940874262701  7.2003771813551367 35.2210765872877118
  1.3828940874262710 17.3544305591939647 35.2210765872877118
  1.3828940874262710 27.5084839370327927 35.2210765872877118
  1.3828940874262745 37.6625373148716136 35.2210765872877118
  1.3828940874262692 47.8165906927104345 35.2210765872877118
  1.3828940874262656 57.9706440705492625 35.2210765872877118
  1.3828940874262763 68.1246974483880905 35.2210765872877118
  1.3828940874262727 78.2787508262269114 35.2210765872877118
 31.8450542209427390 17.3544305591939789 35.2210765872877118
 11.5369474652650990 17.3544305591939647 35.2210765872877118
 11.5369474652650919 27.5084839370327856 35.2210765872877118
 11.5369474652650954 37.6625373148716136 35.2210765872877118
 11.5369474652650883 47.8165906927104487 35.2210765872877118
 11.5369474652651007 57.9706440705492554 35.2210765872877118
 11.5369474652651007 68.1246974483880763 35.2210765872877118
 11.5369474652651007 78.2787508262269114 35.2210765872877118
 11.5369474652651043 88.4328042040657465 35.2210765872877118
 21.6910008431039110 17.3544305591939576 35.2210765872877118
 21.6910008431039181 27.5084839370327856 35.2210765872877118
 21.6910008431039145 37.6625373148716136 35.2210765872877118
 21.6910008431039145 47.8165906927104345 35.2210765872877118
 21.6910008431039145 57.9706440705492767 35.2210765872877118
 21.6910008431039216 68.1246974483880763 35.2210765872877118
 21.6910008431039216 78.2787508262269114 35.2210765872877118
 21.6910008431039145 88.4328042040657607 35.2210765872877118
 52.1531609766203985 27.5084839370327998 35.2210765872877118
 31.8450542209427283 27.5084839370327892 35.2210765872877118
 31.8450542209427354 37.6625373148716065 35.2210765872877118
 31.8450542209427496 47.8165906927104345 35.2210765872877118
 31.8450542209427496 57.9706440705492625 35.2210765872877118
 31.8450542209427354 68.1246974483880763 35.2210765872877118
 31.8450542209427319 78.2787508262269114 35.2210765872877118
 31.8450542209427319 88.4328042040657323 35.2210765872877118
 62.3072143544592194 27.5084839370327998 35.2210765872877118
 41.9991075987815492 27.5084839370327821 35.2210765872877118
 41.9991075987815634 37.6625373148716136 35.2210765872877118
 41.9991075987815634 47.8165906927104345 35.2210765872877118
 41.9991075987815634 57.9706440705492625 35.2210765872877118
 41.9991075987815705 68.1246974483880763 35.2210765872877118
 41.9991075987815776 78.2787508262268972 35.2210765872877118
 41.9991075987815634 88.4328042040657323 35.2210765872877118
 -29.0792660460902113 68.1246974483880763 35.2210765872877118
 52.1531609766203843 37.6625373148716065 35.2210765872877118
 52.1531609766203701 47.8165906927104487 35.2210765872877118
 52.1531609766203843 57.9706440705492625 35.2210765872877118
 52.1531609766203914 68.1246974483880763 35.2210765872877118
 -18.9252126682513762 47.8165906927104487 35.2210765872877118
 62.3072143544591981 37.6625373148715994 35.2210765872877118
 62.3072143544591839 47.8165906927104345 35.2210765872877118
 -8.7711592904125428 27.5084839370327963 35.2210765872877118
 -17.1788161309646981 58.1484509042921331 29.0890389682395849
 -17.1788161309646945 68.3025042821309682 29.0890389682395849
 13.2833440025517735  7.3781840150980305 29.0890389682395849
 -7.0247627531258763 37.8403441486144914 29.0890389682395849
 -7.0247627531258718 47.9943975264533123 29.0890389682395849
 -7.0247627531258701 58.1484509042921474 29.0890389682395849
 -7.0247627531258772 68.3025042821309682 29.0890389682395849
 -7.0247627531258807 78.4565576599697891 29.0890389682395849
  3.1292906247129428  7.3781840150980154 29.0890389682395849
  3.1292906247129482 17.5322373929368389 29.0890389682395849
  3.1292906247129419 27.6862907707756705 29.0890389682395849
  3.1292906247129437 37.8403441486144914 29.0890389682395849
  3.1292906247129508 47.9943975264533265 29.0890389682395849
  3.1292906247129473 58.1484509042921403 29.0890389682395849
  3.1292906247129473 68.3025042821309682 29.0890389682395849
  3.1292906247129473 78.4565576599697891 29.0890389682395849
 33.5914507582294135 17.5322373929368460 29.0890389682395849
 13.2833440025517699 17.5322373929368389 29.0890389682395849
 13.2833440025517664 27.6862907707756634 29.0890389682395849
 13.2833440025517699 37.8403441486144914 29.0890389682395849
 13.2833440025517628 47.9943975264533123 29.0890389682395849
 13.2833440025517753 58.1484509042921545 29.0890389682395849
 13.2833440025517788 68.3025042821309682 29.0890389682395849
 13.2833440025517575 78.4565576599697891 29.0890389682395849
 13.2833440025517682 88.6106110378086100 29.0890389682395849
 23.4373973803905855 17.5322373929368354 29.0890389682395849
 23.4373973803905997 27.6862907707756634 29.0890389682395849
 23.4373973803905891 37.8403441486144914 29.0890389682395849
 23.4373973803905997 47.9943975264533194 29.0890389682395849
 23.4373973803905962 58.1484509042921474 29.0890389682395849
 23.4373973803905891 68.3025042821309682 29.0890389682395849
 23.4373973803905926 78.4565576599697891 29.0890389682395849
 23.4373973803905962 88.6106110378086100 29.0890389682395849
 53.8995575139070553 27.6862907707756811 29.0890389682395849
 33.5914507582293993 27.6862907707756563 29.0890389682395849
 33.5914507582294206 37.8403441486144914 29.0890389682395849
 33.5914507582294064 47.9943975264533194 29.0890389682395849
 33.5914507582294135 58.1484509042921331 29.0890389682395849
 33.5914507582294135 68.3025042821309682 29.0890389682395849
 33.5914507582294135 78.4565576599698034 29.0890389682395849
 33.5914507582294064 88.6106110378086100 29.0890389682395849
 64.0536108917458904 27.6862907707756847 29.0890389682395849
 43.7455041360682202 27.6862907707756598 29.0890389682395849
 43.7455041360682344 37.8403441486144843 29.0890389682395849
 43.7455041360682415 47.9943975264533265 29.0890389682395849
 43.7455041360682415 58.1484509042921474 29.0890389682395849
 43.7455041360682486 68.3025042821309682 29.0890389682395849
 43.7455041360682486 78.4565576599698034 29.0890389682395849
 43.7455041360682628 88.6106110378086100 29.0890389682395849
 -27.3328695088035190 68.3025042821309825 29.0890389682395849
 53.8995575139070624 37.8403441486144843 29.0890389682395849
 53.8995575139070624 47.9943975264533123 29.0890389682395849
 53.8995575139070553 58.1484509042921331 29.0890389682395849
 53.8995575139070553 68.3025042821309540 29.0890389682395849
 -17.1788161309646981 47.9943975264533051 29.0890389682395849
 64.0536108917458762 37.8403441486144771 29.0890389682395849
 -7.0247627531258976 17.5322373929368389 29.0890389682395849
 -7.0247627531258834 27.6862907707756669 29.0890389682395849
 -18.6009429576552989 57.7302029942931370 29.9240230873953728
 -18.6009429576552918 67.8842563721319721 29.9240230873953728
 11.8612171758611780  6.9599361050990192 29.9240230873953728
 -8.4468895798164727 37.4220962386154881 29.9240230873953728
 -8.4468895798164745 47.5761496164543090 29.9240230873953728
 -8.4468895798164727 57.7302029942931370 29.9240230873953728
 -8.4468895798164745 67.8842563721319721 29.9240230873953728
 -8.4468895798164780 78.0383097499707930 29.9240230873953728
  1.7071637980223469  6.9599361050990103 29.9240230873953728
  1.7071637980223482 17.1139894829378356 29.9240230873953728
  1.7071637980223464 27.2680428607766601 29.9240230873953728
  1.7071637980223500 37.4220962386154810 29.9240230873953728
  1.7071637980223393 47.5761496164543232 29.9240230873953728
  1.7071637980223429 57.7302029942931370 29.9240230873953728
  1.7071637980223464 67.8842563721319578 29.9240230873953728
  1.7071637980223571 78.0383097499707930 29.9240230873953728
 32.1693239315388197 17.1139894829378569 29.9240230873953728
 11.8612171758611709 17.1139894829378356 29.9240230873953728
 11.8612171758611709 27.2680428607766601 29.9240230873953728
 11.8612171758611726 37.4220962386154810 29.9240230873953728
 11.8612171758611602 47.5761496164543232 29.9240230873953728
 11.8612171758611709 57.7302029942931512 29.9240230873953728
 11.8612171758611673 67.8842563721319578 29.9240230873953728
 11.8612171758611709 78.0383097499708072 29.9240230873953728
 11.8612171758611886 88.1923631278096138 29.9240230873953728
 22.0152705536999882 17.1139894829378321 29.9240230873953728
 22.0152705536999918 27.2680428607766601 29.9240230873953728
 22.0152705536999953 37.4220962386154810 29.9240230873953728
 22.0152705536999846 47.5761496164543161 29.9240230873953728
 22.0152705536999882 57.7302029942931512 29.9240230873953728
 22.0152705537000024 67.8842563721319721 29.9240230873953728
 22.0152705536999953 78.0383097499707787 29.9240230873953728
 22.0152705536999882 88.1923631278096138 29.9240230873953728
 52.4774306872164615 27.2680428607766672 29.9240230873953728
 32.1693239315388197 27.2680428607766636 29.9240230873953728
 32.1693239315388055 37.4220962386154810 29.9240230873953728
 32.1693239315388055 47.5761496164543018 29.9240230873953728
 32.1693239315388126 57.7302029942931298 29.9240230873953728
 32.1693239315388269 67.8842563721319721 29.9240230873953728
 32.1693239315388126 78.0383097499707645 29.9240230873953728
 32.1693239315388269 88.1923631278096138 29.9240230873953728
 62.6314840650552895 27.2680428607766707 29.9240230873953728
 42.3233773093776264 27.2680428607766672 29.9240230873953728
 42.3233773093776335 37.4220962386154810 29.9240230873953728
 42.3233773093776406 47.5761496164543090 29.9240230873953728
 42.3233773093776264 57.7302029942931370 29.9240230873953728
 42.3233773093776264 67.8842563721319578 29.9240230873953728
 42.3233773093776335 78.0383097499707645 29.9240230873953728
 42.3233773093776406 88.1923631278096138 29.9240230873953728
 -28.7549963354941305 67.8842563721319578 29.9240230873953728
 52.4774306872164686 37.4220962386154881 29.9240230873953728
 52.4774306872164402 47.5761496164543161 29.9240230873953728
 52.4774306872164829 57.7302029942931370 29.9240230873953728
 52.4774306872164544 67.8842563721319721 29.9240230873953728
 -18.6009429576553096 47.5761496164542876 29.9240230873953728
 62.6314840650552611 37.4220962386154881 29.9240230873953728
 62.6314840650552611 47.5761496164543018 29.9240230873953728
 -8.4468895798164798 27.2680428607766672 29.9240230873953728
 -18.1163694241095854 59.3680578784400268 29.8159890150975393
 -18.1163694241095783 69.5221112562788619 29.8159890150975393
 12.3457907094068862  8.5977909892459330 29.8159890150975393
 -7.9623160462707627 39.0599511227623850 29.8159890150975393
 -7.9623160462707574 49.2140045006012059 29.8159890150975393
 -7.9623160462707574 59.3680578784400410 29.8159890150975393
 -7.9623160462707538 69.5221112562788619 29.8159890150975393
 -7.9623160462707574 79.6761646341176828 29.8159890150975393
  2.1917373315680617  8.5977909892459099 29.8159890150975393
  2.1917373315680626 18.7518443670847361 29.8159890150975393
  2.1917373315680653 28.9058977449235570 29.8159890150975393
  2.1917373315680635 39.0599511227623850 29.8159890150975393
  2.1917373315680670 49.2140045006012059 29.8159890150975393
  2.1917373315680599 59.3680578784400339 29.8159890150975393
  2.1917373315680706 69.5221112562788619 29.8159890150975393
  2.1917373315680599 79.6761646341176828 29.8159890150975393
 32.6538974650845404 18.7518443670847503 29.8159890150975393
 12.3457907094068879 18.7518443670847361 29.8159890150975393
 12.3457907094068862 28.9058977449235570 29.8159890150975393
 12.3457907094068862 39.0599511227623850 29.8159890150975393
 12.3457907094068844 49.2140045006012059 29.8159890150975393
 12.3457907094068879 59.3680578784400410 29.8159890150975393
 12.3457907094068950 69.5221112562788619 29.8159890150975393
 12.3457907094068879 79.6761646341176970 29.8159890150975393
 42.8079508429233542 18.7518443670847361 29.8159890150975393
 22.4998440872457053 18.7518443670847361 29.8159890150975393
 22.4998440872457124 28.9058977449235570 29.8159890150975393
 22.4998440872457053 39.0599511227623850 29.8159890150975393
 22.4998440872457053 49.2140045006012059 29.8159890150975393
 22.4998440872457124 59.3680578784400410 29.8159890150975393
 22.4998440872457124 69.5221112562788619 29.8159890150975393
 22.4998440872456840 79.6761646341176970 29.8159890150975393
 22.4998440872457088 89.8302180119565037 29.8159890150975393
 52.9620042207621822 28.9058977449235748 29.8159890150975393
 32.6538974650845191 28.9058977449235570 29.8159890150975393
 32.6538974650845333 39.0599511227623850 29.8159890150975393
 32.6538974650845475 49.2140045006011988 29.8159890150975393
 32.6538974650845404 59.3680578784400410 29.8159890150975393
 32.6538974650845262 69.5221112562788619 29.8159890150975393
 32.6538974650845404 79.6761646341176686 29.8159890150975393
 32.6538974650845262 89.8302180119565037 29.8159890150975393
 63.1160575986009960 28.9058977449235570 29.8159890150975393
 42.8079508429233471 28.9058977449235570 29.8159890150975393
 42.8079508429233684 39.0599511227623850 29.8159890150975393
 42.8079508429233684 49.2140045006012059 29.8159890150975393
 42.8079508429233755 59.3680578784400410 29.8159890150975393
 42.8079508429233613 69.5221112562788761 29.8159890150975393
 42.8079508429233613 79.6761646341176686 29.8159890150975393
 42.8079508429233542 89.8302180119565037 29.8159890150975393
 -28.2704228019483921 69.5221112562788477 29.8159890150975393
 52.9620042207621822 39.0599511227623850 29.8159890150975393
 52.9620042207621680 49.2140045006012059 29.8159890150975393
 52.9620042207621822 59.3680578784400410 29.8159890150975393
 52.9620042207621751 69.5221112562788619 29.8159890150975393
 -18.1163694241095783 49.2140045006012059 29.8159890150975393
 63.1160575986009746 39.0599511227623708 29.8159890150975393
 -7.9623160462707752 18.7518443670847290 29.8159890150975393
 -7.9623160462707645 28.9058977449235606 29.8159890150975393
 -16.1177026949241053 58.9077056323057136 31.0942039427118324
 -16.1177026949240982 69.0617590101445273 31.0942039427118324
 14.3444574385923644  8.1374387431115949 31.0942039427118324
 -5.9636493170852898 38.5995988766280718 31.0942039427118324
 -5.9636493170852845 48.7536522544668998 31.0942039427118324
 -5.9636493170852880 58.9077056323057278 31.0942039427118324
 -5.9636493170852809 69.0617590101445273 31.0942039427118324
 -5.9636493170852880 79.2158123879833624 31.0942039427118324
  4.1904040607535347  8.1374387431115878 31.0942039427118324
  4.1904040607535347 18.2914921209504122 31.0942039427118324
  4.1904040607535382 28.4455454987892367 31.0942039427118324
  4.1904040607535400 38.5995988766280647 31.0942039427118324
  4.1904040607535329 48.7536522544668856 31.0942039427118324
  4.1904040607535400 58.9077056323057207 31.0942039427118324
  4.1904040607535471 69.0617590101445273 31.0942039427118324
  4.1904040607535435 79.2158123879833624 31.0942039427118324
 34.6525641942700133 18.2914921209504300 31.0942039427118324
 14.3444574385923591 18.2914921209504122 31.0942039427118324
 14.3444574385923573 28.4455454987892367 31.0942039427118324
 14.3444574385923556 38.5995988766280647 31.0942039427118324
 14.3444574385923538 48.7536522544668856 31.0942039427118324
 14.3444574385923573 58.9077056323057136 31.0942039427118324
 14.3444574385923538 69.0617590101445273 31.0942039427118324
 14.3444574385923573 79.2158123879833624 31.0942039427118324
 14.3444574385923751 89.3698657658221975 31.0942039427118324
 24.4985108164311782 18.2914921209504087 31.0942039427118324
 24.4985108164311818 28.4455454987892367 31.0942039427118324
 24.4985108164311889 38.5995988766280718 31.0942039427118324
 24.4985108164311782 48.7536522544668998 31.0942039427118324
 24.4985108164311853 58.9077056323057064 31.0942039427118324
 24.4985108164311924 69.0617590101445273 31.0942039427118324
 24.4985108164311853 79.2158123879833624 31.0942039427118324
 24.4985108164311747 89.3698657658221975 31.0942039427118324
 54.9606709499476622 28.4455454987892438 31.0942039427118324
 34.6525641942699991 28.4455454987892367 31.0942039427118324
 34.6525641942700062 38.5995988766280576 31.0942039427118324
 34.6525641942700133 48.7536522544668927 31.0942039427118324
 34.6525641942700204 58.9077056323057207 31.0942039427118324
 34.6525641942699991 69.0617590101445273 31.0942039427118324
 34.6525641942699991 79.2158123879833624 31.0942039427118324
 34.6525641942700133 89.3698657658221975 31.0942039427118324
 65.1147243277864760 28.4455454987892473 31.0942039427118324
 44.8066175721088200 28.4455454987892402 31.0942039427118324
 44.8066175721088200 38.5995988766280576 31.0942039427118324
 44.8066175721088342 48.7536522544668856 31.0942039427118324
 44.8066175721088200 58.9077056323057207 31.0942039427118324
 44.8066175721088342 69.0617590101445273 31.0942039427118324
 44.8066175721088413 79.2158123879833624 31.0942039427118324
 44.8066175721088200 89.3698657658221975 31.0942039427118324
 -26.2717560727629333 69.0617590101445415 31.0942039427118324
 54.9606709499476622 38.5995988766280718 31.0942039427118324
 54.9606709499476480 48.7536522544668856 31.0942039427118324
 54.9606709499476480 58.9077056323057136 31.0942039427118324
 -16.1177026949241018 38.5995988766280576 31.0942039427118324
 -16.1177026949241124 48.7536522544668998 31.0942039427118324
 65.1147243277864760 38.5995988766280647 31.0942039427118324
 -5.9636493170853067 18.2914921209504122 31.0942039427118324
 -5.9636493170852924 28.4455454987892438 31.0942039427118324
 -16.6316631056736597 57.1833419746106202 31.2114045751024634
 -16.6316631056736597 67.3373953524494482 31.2114045751024634
 13.8304970278428154  6.4130750854165006 31.2114045751024634
 -6.4776097278348388 36.8752352189329784 31.2114045751024634
 -6.4776097278348388 47.0292885967718064 31.2114045751024634
 -6.4776097278348335 57.1833419746106202 31.2114045751024634
 -6.4776097278348388 67.3373953524494482 31.2114045751024634
 -6.4776097278348388 77.4914487302882691 31.2114045751024634
  3.6764436500039857  6.4130750854164980 31.2114045751024634
  3.6764436500039865 16.5671284632553260 31.2114045751024634
  3.6764436500039839 26.7211818410941575 31.2114045751024634
  3.6764436500039803 36.8752352189329784 31.2114045751024634
  3.6764436500039821 47.0292885967717922 31.2114045751024634
  3.6764436500039857 57.1833419746106202 31.2114045751024634
  3.6764436500039892 67.3373953524494624 31.2114045751024634
  3.6764436500039857 77.4914487302882691 31.2114045751024634
 34.1386037835204519 16.5671284632553331 31.2114045751024634
 13.8304970278428083 16.5671284632553224 31.2114045751024634
 13.8304970278428030 26.7211818410941504 31.2114045751024634
 13.8304970278428048 36.8752352189329713 31.2114045751024634
 13.8304970278428083 47.0292885967717922 31.2114045751024634
 13.8304970278428065 57.1833419746106202 31.2114045751024634
 13.8304970278428065 67.3373953524494482 31.2114045751024634
 13.8304970278428172 77.4914487302882691 31.2114045751024634
 13.8304970278428030 87.6455021081270900 31.2114045751024634
 23.9845504056816239 16.5671284632553188 31.2114045751024634
 23.9845504056816345 26.7211818410941540 31.2114045751024634
 23.9845504056816310 36.8752352189329713 31.2114045751024634
 23.9845504056816345 47.0292885967717922 31.2114045751024634
 23.9845504056816274 57.1833419746106131 31.2114045751024634
 23.9845504056816168 67.3373953524494482 31.2114045751024634
 23.9845504056816203 77.4914487302882691 31.2114045751024634
 23.9845504056816239 87.6455021081270900 31.2114045751024634
 54.4467105391981079 26.7211818410941540 31.2114045751024634
 34.1386037835204448 26.7211818410941433 31.2114045751024634
 34.1386037835204448 36.8752352189329642 31.2114045751024634
 34.1386037835204590 47.0292885967717851 31.2114045751024634
 34.1386037835204732 57.1833419746106273 31.2114045751024634
 34.1386037835204448 67.3373953524494482 31.2114045751024634
 34.1386037835204590 77.4914487302882691 31.2114045751024634
 34.1386037835204519 87.6455021081270900 31.2114045751024634
 34.1386037835204590 97.7995554859659393 31.2114045751024634
 44.2926571613592799 26.7211818410941468 31.2114045751024634
 44.2926571613592799 36.8752352189329713 31.2114045751024634
 44.2926571613592728 47.0292885967717922 31.2114045751024634
 44.2926571613592728 57.1833419746106344 31.2114045751024634
 44.2926571613592799 67.3373953524494766 31.2114045751024634
 44.2926571613592728 77.4914487302882549 31.2114045751024634
 44.2926571613592728 87.6455021081270900 31.2114045751024634
 -26.7857164835124877 67.3373953524494482 31.2114045751024634
 54.4467105391980937 36.8752352189329642 31.2114045751024634
 54.4467105391980795 47.0292885967717922 31.2114045751024634
 54.4467105391980866 57.1833419746106202 31.2114045751024634
 54.4467105391981008 67.3373953524494482 31.2114045751024634
 -16.6316631056736668 47.0292885967717922 31.2114045751024634
 64.6007639170369288 36.8752352189329571 31.2114045751024634
 -6.4776097278348503 16.5671284632553188 31.2114045751024634
 -6.4776097278348361 26.7211818410941575 31.2114045751024634
 -18.7274277988057243 57.8901963274651052 32.3960739248114109
 -18.7274277988057207 68.0442497053039119 32.3960739248114109
 11.7347323347107473  7.1199294382709946 32.3960739248114109
 -8.5733744209668998 37.5820895717874492 32.3960739248114109
 -8.5733744209668927 47.7361429496262772 32.3960739248114109
 -8.5733744209668945 57.8901963274651123 32.3960739248114109
 -8.5733744209669034 68.0442497053039261 32.3960739248114109
 -8.5733744209668998 78.1983030831427754 32.3960739248114109
  1.5806789568719215  7.1199294382709706 32.3960739248114109
  1.5806789568719228 17.2739828161098004 32.3960739248114109
  1.5806789568719211 27.4280361939486248 32.3960739248114109
  1.5806789568719264 37.5820895717874492 32.3960739248114109
  1.5806789568719317 47.7361429496262701 32.3960739248114109
  1.5806789568719175 57.8901963274651052 32.3960739248114109
  1.5806789568719282 68.0442497053039119 32.3960739248114109
  1.5806789568719246 78.1983030831427470 32.3960739248114109
 32.0428390903883908 17.2739828161098110 32.3960739248114109
 11.7347323347107508 17.2739828161097968 32.3960739248114109
 11.7347323347107420 27.4280361939486248 32.3960739248114109
 11.7347323347107420 37.5820895717874421 32.3960739248114109
 11.7347323347107402 47.7361429496262701 32.3960739248114109
 11.7347323347107562 57.8901963274651052 32.3960739248114109
 11.7347323347107420 68.0442497053039261 32.3960739248114109
 11.7347323347107420 78.1983030831427754 32.3960739248114109
 11.7347323347107562 88.3523564609815821 32.3960739248114109
 21.8887857125495628 17.2739828161097932 32.3960739248114109
 21.8887857125495771 27.4280361939486284 32.3960739248114109
 21.8887857125495735 37.5820895717874564 32.3960739248114109
 21.8887857125495771 47.7361429496262701 32.3960739248114109
 21.8887857125495628 57.8901963274651052 32.3960739248114109
 21.8887857125495664 68.0442497053039403 32.3960739248114109
 21.8887857125495664 78.1983030831427612 32.3960739248114109
 21.8887857125495771 88.3523564609815821 32.3960739248114109
 52.3509458460660468 27.4280361939486319 32.3960739248114109
 32.0428390903883837 27.4280361939486141 32.3960739248114109
 32.0428390903883979 37.5820895717874492 32.3960739248114109
 32.0428390903883837 47.7361429496262701 32.3960739248114109
 32.0428390903883908 57.8901963274650910 32.3960739248114109
 32.0428390903883837 68.0442497053039261 32.3960739248114109
 32.0428390903884122 78.1983030831427470 32.3960739248114109
 32.0428390903883979 88.3523564609815821 32.3960739248114109
 62.5049992239048677 27.4280361939486390 32.3960739248114109
 42.1968924682271975 27.4280361939486212 32.3960739248114109
 42.1968924682272046 37.5820895717874492 32.3960739248114109
 42.1968924682272188 47.7361429496262701 32.3960739248114109
 42.1968924682272188 57.8901963274651052 32.3960739248114109
 42.1968924682272188 68.0442497053039261 32.3960739248114109
 42.1968924682272188 78.1983030831427328 32.3960739248114109
 42.1968924682272331 88.3523564609815821 32.3960739248114109
 -28.8814811766445416 68.0442497053039119 32.3960739248114109
 52.3509458460660468 37.5820895717874564 32.3960739248114109
 52.3509458460660397 47.7361429496262701 32.3960739248114109
 52.3509458460660255 57.8901963274651052 32.3960739248114109
 52.3509458460660326 68.0442497053039261 32.3960739248114109
 -18.7274277988057243 47.7361429496262843 32.3960739248114109
 62.5049992239048464 37.5820895717874350 32.3960739248114109
 62.5049992239048606 47.7361429496262701 32.3960739248114109
 -8.5733744209669069 27.4280361939486319 32.3960739248114109
 -18.2049785816332772 59.6160994753034359 32.2953594582031513
 -18.2049785816332808 69.7701528531422639 32.2953594582031513
 12.2571815518831908  8.8458325861093456 32.2953594582031513
 -8.0509252037944492 39.3079927196258012 32.2953594582031513
 -8.0509252037944528 49.4620460974646292 32.2953594582031513
 -8.0509252037944474 59.6160994753034359 32.2953594582031513
 -8.0509252037944492 69.7701528531422639 32.2953594582031513
 -8.0509252037944563 79.9242062309810848 32.2953594582031513
  2.1031281740443677  8.8458325861093243 32.2953594582031513
  2.1031281740443672 18.9998859639481488 32.2953594582031513
  2.1031281740443681 29.1539393417869732 32.2953594582031513
  2.1031281740443664 39.3079927196257941 32.2953594582031513
  2.1031281740443717 49.4620460974646221 32.2953594582031513
  2.1031281740443681 59.6160994753034501 32.2953594582031513
  2.1031281740443717 69.7701528531422639 32.2953594582031513
  2.1031281740443752 79.9242062309810990 32.2953594582031513
 32.5652883075608486 18.9998859639481665 32.2953594582031513
 12.2571815518831890 18.9998859639481559 32.2953594582031513
 12.2571815518831961 29.1539393417869803 32.2953594582031513
 12.2571815518831926 39.3079927196258012 32.2953594582031513
 12.2571815518831926 49.4620460974646221 32.2953594582031513
 12.2571815518831926 59.6160994753034501 32.2953594582031513
 12.2571815518831926 69.7701528531422639 32.2953594582031513
 12.2571815518831890 79.9242062309810990 32.2953594582031513
 42.7193416853996695 18.9998859639481630 32.2953594582031513
 22.4112349297220028 18.9998859639481452 32.2953594582031513
 22.4112349297220135 29.1539393417869732 32.2953594582031513
 22.4112349297220206 39.3079927196258012 32.2953594582031513
 22.4112349297220064 49.4620460974646221 32.2953594582031513
 22.4112349297220099 59.6160994753034430 32.2953594582031513
 22.4112349297220099 69.7701528531422639 32.2953594582031513
 22.4112349297220099 79.9242062309810990 32.2953594582031513
 22.4112349297220028 90.0782596088199199 32.2953594582031513
 52.8733950632384904 29.1539393417869803 32.2953594582031513
 32.5652883075608344 29.1539393417869768 32.2953594582031513
 32.5652883075608202 39.3079927196257941 32.2953594582031513
 32.5652883075608344 49.4620460974646292 32.2953594582031513
 32.5652883075608486 59.6160994753034430 32.2953594582031513
 32.5652883075608486 69.7701528531422639 32.2953594582031513
 32.5652883075608344 79.9242062309810990 32.2953594582031513
 32.5652883075608344 90.0782596088199483 32.2953594582031513
 63.0274484410773184 29.1539393417869839 32.2953594582031513
 42.7193416853996411 29.1539393417869768 32.2953594582031513
 42.7193416853996695 39.3079927196258012 32.2953594582031513
 42.7193416853996695 49.4620460974646363 32.2953594582031513
 42.7193416853996553 59.6160994753034501 32.2953594582031513
 42.7193416853996553 69.7701528531422639 32.2953594582031513
 42.7193416853996553 79.9242062309810848 32.2953594582031513
 42.7193416853996553 90.0782596088199199 32.2953594582031513
 -28.3590319594721052 69.7701528531422639 32.2953594582031513
 52.8733950632384762 39.3079927196257941 32.2953594582031513
 52.8733950632384833 49.4620460974646363 32.2953594582031513
 52.8733950632384975 59.6160994753034430 32.2953594582031513
 52.8733950632384975 69.7701528531422639 32.2953594582031513
 -18.2049785816332665 49.4620460974646221 32.2953594582031513
 63.0274484410772899 39.3079927196257870 32.2953594582031513
 -8.0509252037944687 18.9998859639481452 32.2953594582031513
 -8.0509252037944510 29.1539393417869768 32.2953594582031513
 -16.1041497483887817 59.0089785227596266 33.5856994142773573
 -16.1041497483887852 69.1630319005984546 33.5856994142773573
 14.3580103851276881  8.2387116335655151 33.5856994142773573
 -5.9500963705499625 38.7008717670819777 33.5856994142773573
 -5.9500963705499643 48.8549251449208057 33.5856994142773573
 -5.9500963705499608 59.0089785227596337 33.5856994142773573
 -5.9500963705499572 69.1630319005984688 33.5856994142773573
 -5.9500963705499572 79.3170852784372755 33.5856994142773573
  4.2039570072888575  8.2387116335655080 33.5856994142773573
  4.2039570072888592 18.3927650114043324 33.5856994142773573
  4.2039570072888619 28.5468183892431675 33.5856994142773573
  4.2039570072888601 38.7008717670819848 33.5856994142773573
  4.2039570072888566 48.8549251449208199 33.5856994142773573
  4.2039570072888601 59.0089785227596337 33.5856994142773573
  4.2039570072888601 69.1630319005984546 33.5856994142773573
  4.2039570072888601 79.3170852784372755 33.5856994142773573
 34.6661171408053406 18.3927650114043537 33.5856994142773573
 14.3580103851276810 18.3927650114043324 33.5856994142773573
 14.3580103851276810 28.5468183892431604 33.5856994142773573
 14.3580103851276792 38.7008717670819777 33.5856994142773573
 14.3580103851276828 48.8549251449208199 33.5856994142773573
 14.3580103851276810 59.0089785227596479 33.5856994142773573
 14.3580103851276917 69.1630319005984688 33.5856994142773573
 14.3580103851276739 79.3170852784372755 33.5856994142773573
 14.3580103851276846 89.4711386562761106 33.5856994142773573
 24.5120637629664948 18.3927650114043324 33.5856994142773573
 24.5120637629665090 28.5468183892431568 33.5856994142773573
 24.5120637629665019 38.7008717670819777 33.5856994142773573
 24.5120637629665055 48.8549251449208199 33.5856994142773573
 24.5120637629665090 59.0089785227596337 33.5856994142773573
 24.5120637629665161 69.1630319005984688 33.5856994142773573
 24.5120637629665055 79.3170852784372755 33.5856994142773573
 24.5120637629665126 89.4711386562761248 33.5856994142773573
 54.9742238964829824 28.5468183892431711 33.5856994142773573
 34.6661171408053193 28.5468183892431639 33.5856994142773573
 34.6661171408053193 38.7008717670819777 33.5856994142773573
 34.6661171408053264 48.8549251449207986 33.5856994142773573
 34.6661171408053264 59.0089785227596266 33.5856994142773573
 34.6661171408053264 69.1630319005984688 33.5856994142773573
 34.6661171408053406 79.3170852784372755 33.5856994142773573
 34.6661171408053406 89.4711386562761106 33.5856994142773573
 65.1282772743218175 28.5468183892431675 33.5856994142773573
 44.8201705186441401 28.5468183892431533 33.5856994142773573
 44.8201705186441473 38.7008717670819777 33.5856994142773573
 44.8201705186441544 48.8549251449208199 33.5856994142773573
 44.8201705186441473 59.0089785227596479 33.5856994142773573
 44.8201705186441615 69.1630319005984688 33.5856994142773573
 44.8201705186441473 79.3170852784372755 33.5856994142773573
 44.8201705186441473 89.4711386562761106 33.5856994142773573
 -26.2582031262276132 69.1630319005984546 33.5856994142773573
 54.9742238964829824 38.7008717670819919 33.5856994142773573
 54.9742238964829539 48.8549251449208199 33.5856994142773573
 54.9742238964829824 59.0089785227596195 33.5856994142773573
 -16.1041497483887817 38.7008717670819991 33.5856994142773573
 -16.1041497483887852 48.8549251449208057 33.5856994142773573
 65.1282772743217890 38.7008717670819706 33.5856994142773573
 -5.9500963705499839 18.3927650114043324 33.5856994142773573
 -5.9500963705499661 28.5468183892431604 33.5856994142773573
 -16.7225057742520775 57.3340579717097896 33.7772002240411240
 -16.7225057742520846 67.4881113495486034 33.7772002240411240
 13.7396543592643834  6.5637910825156878 33.7772002240411240
 -6.5684523964132566 37.0259512160321336 33.7772002240411240
 -6.5684523964132620 47.1800045938709616 33.7772002240411240
 -6.5684523964132637 57.3340579717097896 33.7772002240411240
 -6.5684523964132566 67.4881113495486176 33.7772002240411240
 -6.5684523964132566 77.6421647273874385 33.7772002240411240
  3.5856009814255616  6.5637910825156620 33.7772002240411240
  3.5856009814255643 16.7178444603544847 33.7772002240411240
  3.5856009814255625 26.8718978381933091 33.7772002240411240
  3.5856009814255660 37.0259512160321336 33.7772002240411240
  3.5856009814255678 47.1800045938709758 33.7772002240411240
  3.5856009814255572 57.3340579717097896 33.7772002240411240
  3.5856009814255678 67.4881113495486034 33.7772002240411240
  3.5856009814255572 77.6421647273874385 33.7772002240411240
 34.0477611149420269 16.7178444603545096 33.7772002240411240
 13.7396543592643869 16.7178444603544847 33.7772002240411240
 13.7396543592643816 26.8718978381933091 33.7772002240411240
 13.7396543592643887 37.0259512160321336 33.7772002240411240
 13.7396543592643816 47.1800045938709687 33.7772002240411240
 13.7396543592643781 57.3340579717098038 33.7772002240411240
 13.7396543592643958 67.4881113495486034 33.7772002240411240
 13.7396543592643781 77.6421647273874385 33.7772002240411240
 13.7396543592643887 87.7962181052262594 33.7772002240411240
 23.8937077371032061 16.7178444603544847 33.7772002240411240
 23.8937077371032167 26.8718978381933056 33.7772002240411240
 23.8937077371032167 37.0259512160321407 33.7772002240411240
 23.8937077371032061 47.1800045938709687 33.7772002240411240
 23.8937077371032132 57.3340579717098038 33.7772002240411240
 23.8937077371032061 67.4881113495486034 33.7772002240411240
 23.8937077371032025 77.6421647273874385 33.7772002240411240
 23.8937077371032061 87.7962181052262594 33.7772002240411240
 54.3558678706196901 26.8718978381933269 33.7772002240411240
 34.0477611149420198 26.8718978381933056 33.7772002240411240
 34.0477611149420341 37.0259512160321407 33.7772002240411240
 34.0477611149420198 47.1800045938709687 33.7772002240411240
 34.0477611149420412 57.3340579717097896 33.7772002240411240
 34.0477611149420341 67.4881113495486034 33.7772002240411240
 34.0477611149420483 77.6421647273874243 33.7772002240411240
 34.0477611149420198 87.7962181052262451 33.7772002240411240
 34.0477611149420341 97.9502714830650802 33.7772002240411240
 44.2018144927808478 26.8718978381933020 33.7772002240411240
 44.2018144927808407 37.0259512160321336 33.7772002240411240
 44.2018144927808549 47.1800045938709687 33.7772002240411240
 44.2018144927808478 57.3340579717097896 33.7772002240411240
 44.2018144927808549 67.4881113495486034 33.7772002240411240
 44.2018144927808549 77.6421647273874385 33.7772002240411240
 44.2018144927808549 87.7962181052262594 33.7772002240411240
 -26.8765591520909055 67.4881113495486318 33.7772002240411240
 54.3558678706196829 37.0259512160321478 33.7772002240411240
 54.3558678706196616 47.1800045938709687 33.7772002240411240
 54.3558678706196758 57.3340579717097825 33.7772002240411240
 54.3558678706196758 67.4881113495486034 33.7772002240411240
 -16.7225057742520846 47.1800045938709545 33.7772002240411240
 64.5099212484584825 37.0259512160321407 33.7772002240411240
 -6.5684523964132699 16.7178444603544918 33.7772002240411240
 -6.5684523964132699 26.8718978381933091 33.7772002240411240
 -18.1627813630136217 59.8959145909230983 34.7756669130314293
 -18.1627813630136110 70.0499679687619050 34.7756669130314293
 12.2993787705028481  9.1256477017290010 34.7756669130314293
 -8.0087279851747972 39.5878078352454494 34.7756669130314293
 -8.0087279851747848 49.7418612130842774 34.7756669130314293
 -8.0087279851747954 59.8959145909231125 34.7756669130314293
 -8.0087279851747866 70.0499679687619192 34.7756669130314293
 -8.0087279851748008 80.2040213466007543 34.7756669130314293
  2.1453253926640259  9.1256477017289761 34.7756669130314293
  2.1453253926640272 19.2797010795678041 34.7756669130314293
  2.1453253926640272 29.4337544574066285 34.7756669130314293
  2.1453253926640290 39.5878078352454494 34.7756669130314293
  2.1453253926640308 49.7418612130842774 34.7756669130314293
  2.1453253926640201 59.8959145909231125 34.7756669130314293
  2.1453253926640308 70.0499679687619192 34.7756669130314293
  2.1453253926640237 80.2040213466007543 34.7756669130314293
 32.6074855261804970 19.2797010795678183 34.7756669130314293
 12.2993787705028517 19.2797010795678077 34.7756669130314293
 12.2993787705028463 29.4337544574066250 34.7756669130314293
 12.2993787705028499 39.5878078352454565 34.7756669130314293
 12.2993787705028552 49.7418612130842845 34.7756669130314293
 12.2993787705028446 59.8959145909231125 34.7756669130314293
 12.2993787705028623 70.0499679687619192 34.7756669130314293
 12.2993787705028481 80.2040213466007685 34.7756669130314293
 42.7615389040193250 19.2797010795678219 34.7756669130314293
 22.4534321483416690 19.2797010795678005 34.7756669130314293
 22.4534321483416690 29.4337544574066285 34.7756669130314293
 22.4534321483416690 39.5878078352454494 34.7756669130314293
 22.4534321483416761 49.7418612130842774 34.7756669130314293
 22.4534321483416690 59.8959145909231125 34.7756669130314293
 22.4534321483416797 70.0499679687619192 34.7756669130314293
 22.4534321483416583 80.2040213466007543 34.7756669130314293
 22.4534321483416690 90.3580747244395752 34.7756669130314293
 52.9155922818581530 29.4337544574066392 34.7756669130314293
 32.6074855261804757 29.4337544574066250 34.7756669130314293
 32.6074855261804970 39.5878078352454494 34.7756669130314293
 32.6074855261805041 49.7418612130842774 34.7756669130314293
 32.6074855261805112 59.8959145909231054 34.7756669130314293
 32.6074855261804899 70.0499679687619476 34.7756669130314293
 32.6074855261804899 80.2040213466007401 34.7756669130314293
 32.6074855261805041 90.3580747244395752 34.7756669130314293
 63.0696456596969739 29.4337544574066392 34.7756669130314293
 42.7615389040193108 29.4337544574066285 34.7756669130314293
 42.7615389040193250 39.5878078352454423 34.7756669130314293
 42.7615389040193321 49.7418612130842774 34.7756669130314293
 42.7615389040193179 59.8959145909230983 34.7756669130314293
 42.7615389040193250 70.0499679687619192 34.7756669130314293
 42.7615389040193179 80.2040213466007401 34.7756669130314293
 42.7615389040193179 90.3580747244395752 34.7756669130314293
 -28.3168347408524355 70.0499679687619192 34.7756669130314293
 52.9155922818581317 39.5878078352454423 34.7756669130314293
 52.9155922818581388 49.7418612130842774 34.7756669130314293
 52.9155922818581388 59.8959145909231125 34.7756669130314293
 52.9155922818581459 70.0499679687619192 34.7756669130314293
 -18.1627813630136217 49.7418612130842774 34.7756669130314293
 63.0696456596969526 39.5878078352454423 34.7756669130314293
 -8.0087279851748168 19.2797010795677970 34.7756669130314293
 -8.0087279851747901 29.4337544574066357 34.7756669130314293
 -17.0946010511032327 58.8560507448953913 35.7739266949111183
 -17.0946010511032256 69.0101041227342193 35.7739266949111183
 13.3675590824132424  8.0857838557012620 35.7739266949111183
 -6.9405476732644136 38.5479439892177282 35.7739266949111183
 -6.9405476732644100 48.7019973670565633 35.7739266949111183
 -6.9405476732644100 58.8560507448953913 35.7739266949111183
 -6.9405476732644154 69.0101041227342193 35.7739266949111183
 -6.9405476732644118 79.1641575005730402 35.7739266949111183
  3.2135057045744087  8.0857838557012585 35.7739266949111183
  3.2135057045744118 18.2398372335400865 35.7739266949111183
  3.2135057045744126 28.3938906113789074 35.7739266949111183
  3.2135057045744091 38.5479439892177282 35.7739266949111183
  3.2135057045744091 48.7019973670565633 35.7739266949111183
  3.2135057045744126 58.8560507448953913 35.7739266949111183
  3.2135057045744198 69.0101041227342193 35.7739266949111183
  3.2135057045744126 79.1641575005730402 35.7739266949111183
 33.6756658380908860 18.2398372335401007 35.7739266949111183
 13.3675590824132371 18.2398372335400829 35.7739266949111183
 13.3675590824132318 28.3938906113789074 35.7739266949111183
 13.3675590824132318 38.5479439892177282 35.7739266949111183
 13.3675590824132300 48.7019973670565633 35.7739266949111183
 13.3675590824132300 58.8560507448953842 35.7739266949111183
 13.3675590824132335 69.0101041227342193 35.7739266949111183
 13.3675590824132442 79.1641575005730260 35.7739266949111183
 13.3675590824132513 89.3182108784118611 35.7739266949111183
 23.5216124602520509 18.2398372335400794 35.7739266949111183
 23.5216124602520651 28.3938906113789074 35.7739266949111183
 23.5216124602520509 38.5479439892177282 35.7739266949111183
 23.5216124602520580 48.7019973670565633 35.7739266949111183
 23.5216124602520544 58.8560507448953913 35.7739266949111183
 23.5216124602520651 69.0101041227342193 35.7739266949111183
 23.5216124602520544 79.1641575005730260 35.7739266949111183
 23.5216124602520509 89.3182108784118611 35.7739266949111183
 53.9837725937685278 28.3938906113789109 35.7739266949111183
 33.6756658380908576 28.3938906113789074 35.7739266949111183
 33.6756658380908789 38.5479439892177282 35.7739266949111183
 33.6756658380908789 48.7019973670565491 35.7739266949111183
 33.6756658380908789 58.8560507448953700 35.7739266949111183
 33.6756658380908718 69.0101041227342051 35.7739266949111183
 33.6756658380908789 79.1641575005730260 35.7739266949111183
 33.6756658380908931 89.3182108784118611 35.7739266949111183
 64.1378259716073416 28.3938906113789074 35.7739266949111183
 43.8297192159296927 28.3938906113789074 35.7739266949111183
 43.8297192159297069 38.5479439892177282 35.7739266949111183
 43.8297192159297140 48.7019973670565633 35.7739266949111183
 43.8297192159297069 58.8560507448953842 35.7739266949111183
 43.8297192159296998 69.0101041227342193 35.7739266949111183
 43.8297192159296998 79.1641575005730260 35.7739266949111183
 43.8297192159296998 89.3182108784118611 35.7739266949111183
 -27.2486544289420785 69.0101041227342193 35.7739266949111183
 53.9837725937685136 38.5479439892177282 35.7739266949111183
 53.9837725937685207 48.7019973670565633 35.7739266949111183
 53.9837725937685349 58.8560507448953842 35.7739266949111183
 53.9837725937685207 69.0101041227342051 35.7739266949111183
 -17.0946010511032398 48.7019973670565633 35.7739266949111183
 64.1378259716073273 38.5479439892177211 35.7739266949111183
 -6.9405476732644340 18.2398372335400794 35.7739266949111183
 -6.9405476732644171 28.3938906113789074 35.7739266949111183
 -18.6079972123351709 56.9749864160105943 35.2638976868488143
 -18.6079972123351745 67.1290397938494294 35.2638976868488143
 11.8541629211812936  6.2047195268164916 35.2638976868488143
 -8.4539438344963553 36.6668796603329525 35.2638976868488143
 -8.4539438344963553 46.8209330381717805 35.2638976868488143
 -8.4539438344963589 56.9749864160106085 35.2638976868488143
 -8.4539438344963571 67.1290397938494294 35.2638976868488143
 -8.4539438344963500 77.2830931716882787 35.2638976868488143
  1.7001095433424647  6.2047195268164792 35.2638976868488143
  1.7001095433424664 16.3587729046553036 35.2638976868488143
  1.7001095433424673 26.5128262824941352 35.2638976868488143
  1.7001095433424656 36.6668796603329525 35.2638976868488143
  1.7001095433424638 46.8209330381717734 35.2638976868488143
  1.7001095433424673 56.9749864160106085 35.2638976868488143
  1.7001095433424709 67.1290397938494294 35.2638976868488143
  1.7001095433424709 77.2830931716882787 35.2638976868488143
 32.1622696768589478 16.3587729046553250 35.2638976868488143
 11.8541629211812882 16.3587729046553108 35.2638976868488143
 11.8541629211812936 26.5128262824941316 35.2638976868488143
 11.8541629211812864 36.6668796603329525 35.2638976868488143
 11.8541629211812847 46.8209330381717805 35.2638976868488143
 11.8541629211812882 56.9749864160106085 35.2638976868488143
 11.8541629211812882 67.1290397938494294 35.2638976868488143
 11.8541629211812953 77.2830931716882645 35.2638976868488143
 11.8541629211813024 87.4371465495270854 35.2638976868488143
 22.0082162990201056 16.3587729046553036 35.2638976868488143
 22.0082162990201127 26.5128262824941281 35.2638976868488143
 22.0082162990201091 36.6668796603329525 35.2638976868488143
 22.0082162990201056 46.8209330381717805 35.2638976868488143
 22.0082162990201056 56.9749864160106085 35.2638976868488143
 22.0082162990201162 67.1290397938494294 35.2638976868488143
 22.0082162990201162 77.2830931716882503 35.2638976868488143
 22.0082162990201020 87.4371465495270996 35.2638976868488143
 52.4703764325365896 26.5128262824941210 35.2638976868488143
 32.1622696768589407 26.5128262824941245 35.2638976868488143
 32.1622696768589336 36.6668796603329525 35.2638976868488143
 32.1622696768589336 46.8209330381717805 35.2638976868488143
 32.1622696768589478 56.9749864160105943 35.2638976868488143
 32.1622696768589336 67.1290397938494294 35.2638976868488143
 32.1622696768589265 77.2830931716882503 35.2638976868488143
 32.1622696768589265 87.4371465495270996 35.2638976868488143
 32.1622696768589549 97.5911999273658921 35.2638976868488143
 42.3163230546977474 26.5128262824941245 35.2638976868488143
 42.3163230546977545 36.6668796603329525 35.2638976868488143
 42.3163230546977758 46.8209330381717805 35.2638976868488143
 42.3163230546977545 56.9749864160106085 35.2638976868488143
 42.3163230546977545 67.1290397938494294 35.2638976868488143
 42.3163230546977474 77.2830931716882361 35.2638976868488143
 42.3163230546977616 87.4371465495270854 35.2638976868488143
 -28.7620505901740096 67.1290397938494152 35.2638976868488143
 52.4703764325365896 36.6668796603329668 35.2638976868488143
 52.4703764325365682 46.8209330381717734 35.2638976868488143
 52.4703764325365896 56.9749864160106085 35.2638976868488143
 52.4703764325365896 67.1290397938494294 35.2638976868488143
 -18.6079972123351816 46.8209330381717805 35.2638976868488143
 62.6244298103754033 36.6668796603329383 35.2638976868488143
 62.6244298103753820 46.8209330381717734 35.2638976868488143
 -8.4539438344963589 26.5128262824941281 35.2638976868488143
 -19.3195380361385531 58.2371062333057097 36.1520779364791665
 -19.3195380361385496 68.3911596111445448 36.1520779364791665
 11.1426220973779184  7.4668393441116017 36.1520779364791665
 -9.1654846582997287 37.9289994776280750 36.1520779364791665
 -9.1654846582997251 48.0830528554669030 36.1520779364791665
 -9.1654846582997234 58.2371062333057310 36.1520779364791665
 -9.1654846582997251 68.3911596111445448 36.1520779364791665
 -9.1654846582997251 78.5452129889833657 36.1520779364791665
  0.9885687195390913  7.4668393441115972 36.1520779364791665
  0.9885687195390922 17.6208927219504297 36.1520779364791665
  0.9885687195390940 27.7749460997892470 36.1520779364791665
  0.9885687195390958 37.9289994776280679 36.1520779364791665
  0.9885687195390886 48.0830528554668959 36.1520779364791665
  0.9885687195390958 58.2371062333057239 36.1520779364791665
  0.9885687195390922 68.3911596111445448 36.1520779364791665
  0.9885687195391029 78.5452129889833657 36.1520779364791665
 31.4507288530555620 17.6208927219504332 36.1520779364791665
 11.1426220973779202 17.6208927219504261 36.1520779364791665
 11.1426220973779166 27.7749460997892506 36.1520779364791665
 11.1426220973779166 37.9289994776280679 36.1520779364791665
 11.1426220973779149 48.0830528554668959 36.1520779364791665
 11.1426220973779202 58.2371062333057239 36.1520779364791665
 11.1426220973779166 68.3911596111445590 36.1520779364791665
 11.1426220973779131 78.5452129889833657 36.1520779364791665
 11.1426220973779202 88.6992663668221866 36.1520779364791665
 21.2966754752167304 17.6208927219504226 36.1520779364791665
 21.2966754752167375 27.7749460997892506 36.1520779364791665
 21.2966754752167304 37.9289994776280750 36.1520779364791665
 21.2966754752167375 48.0830528554669101 36.1520779364791665
 21.2966754752167340 58.2371062333057239 36.1520779364791665
 21.2966754752167340 68.3911596111445448 36.1520779364791665
 21.2966754752167411 78.5452129889833657 36.1520779364791665
 21.2966754752167233 88.6992663668222150 36.1520779364791665
 51.7588356087332073 27.7749460997892541 36.1520779364791665
 31.4507288530555584 27.7749460997892506 36.1520779364791665
 31.4507288530555513 37.9289994776280679 36.1520779364791665
 31.4507288530555584 48.0830528554668888 36.1520779364791665
 31.4507288530555691 58.2371062333057310 36.1520779364791665
 31.4507288530555620 68.3911596111445448 36.1520779364791665
 31.4507288530555584 78.5452129889833657 36.1520779364791665
 31.4507288530555584 88.6992663668221866 36.1520779364791665
 61.9128889865720282 27.7749460997892577 36.1520779364791665
 41.6047822308943722 27.7749460997892434 36.1520779364791665
 41.6047822308943793 37.9289994776280679 36.1520779364791665
 41.6047822308943864 48.0830528554669172 36.1520779364791665
 41.6047822308943935 58.2371062333057310 36.1520779364791665
 41.6047822308943864 68.3911596111445590 36.1520779364791665
 41.6047822308943864 78.5452129889833657 36.1520779364791665
 41.6047822308943793 88.6992663668221866 36.1520779364791665
 41.6047822308944006 98.8533197446610075 36.1520779364791665
 51.7588356087332144 37.9289994776280750 36.1520779364791665
 51.7588356087331860 48.0830528554669030 36.1520779364791665
 51.7588356087332002 58.2371062333057168 36.1520779364791665
 51.7588356087332286 68.3911596111445590 36.1520779364791665
 -19.3195380361385460 48.0830528554668888 36.1520779364791665
 61.9128889865720211 37.9289994776280679 36.1520779364791665
 61.9128889865720282 48.0830528554668888 36.1520779364791665
 -9.1654846582997305 27.7749460997892506 36.1520779364791665
 -19.6776077717343867 58.0760463615150968 34.5036398364846804
 -19.6776077717343796 68.2300997393539319 34.5036398364846804
 10.7845523617820866  7.3057794723209941 34.5036398364846804
 -9.5235543938955658 37.7679396058374621 34.5036398364846804
 -9.5235543938955569 47.9219929836762759 34.5036398364846804
 -9.5235543938955622 58.0760463615151181 34.5036398364846804
 -9.5235543938955658 68.2300997393539319 34.5036398364846804
 -9.5235543938955658 78.3841531171927528 34.5036398364846804
  0.6304989839432582  7.3057794723209843 34.5036398364846804
  0.6304989839432604 17.4598328501598061 34.5036398364846804
  0.6304989839432587 27.6138862279986377 34.5036398364846804
  0.6304989839432587 37.7679396058374621 34.5036398364846804
  0.6304989839432658 47.9219929836762759 34.5036398364846804
  0.6304989839432587 58.0760463615151110 34.5036398364846804
  0.6304989839432658 68.2300997393539319 34.5036398364846804
  0.6304989839432587 78.3841531171927528 34.5036398364846804
 31.0926591174597249 17.4598328501598310 34.5036398364846804
 10.7845523617820831 17.4598328501598061 34.5036398364846804
 10.7845523617820760 27.6138862279986341 34.5036398364846804
 10.7845523617820813 37.7679396058374692 34.5036398364846804
 10.7845523617820778 47.9219929836762688 34.5036398364846804
 10.7845523617820795 58.0760463615151110 34.5036398364846804
 10.7845523617820902 68.2300997393539319 34.5036398364846804
 10.7845523617820760 78.3841531171927528 34.5036398364846804
 10.7845523617820866 88.5382064950315737 34.5036398364846804
 20.9386057396209040 17.4598328501598061 34.5036398364846804
 20.9386057396209111 27.6138862279986341 34.5036398364846804
 20.9386057396209040 37.7679396058374550 34.5036398364846804
 20.9386057396209040 47.9219929836762759 34.5036398364846804
 20.9386057396209146 58.0760463615151252 34.5036398364846804
 20.9386057396209040 68.2300997393539319 34.5036398364846804
 20.9386057396208969 78.3841531171927670 34.5036398364846804
 20.9386057396209111 88.5382064950315737 34.5036398364846804
 51.4007658731373667 27.6138862279986412 34.5036398364846804
 31.0926591174597178 27.6138862279986270 34.5036398364846804
 31.0926591174597249 37.7679396058374550 34.5036398364846804
 31.0926591174597249 47.9219929836762759 34.5036398364846804
 31.0926591174597284 58.0760463615151110 34.5036398364846804
 31.0926591174597213 68.2300997393539319 34.5036398364846804
 31.0926591174597355 78.3841531171927386 34.5036398364846804
 31.0926591174597142 88.5382064950315879 34.5036398364846804
 61.5548192509762018 27.6138862279986519 34.5036398364846804
 41.2467124952985458 27.6138862279986341 34.5036398364846804
 41.2467124952985458 37.7679396058374692 34.5036398364846804
 41.2467124952985529 47.9219929836762759 34.5036398364846804
 41.2467124952985600 58.0760463615151252 34.5036398364846804
 41.2467124952985529 68.2300997393539319 34.5036398364846804
 41.2467124952985529 78.3841531171927386 34.5036398364846804
 41.2467124952985529 88.5382064950315737 34.5036398364846804
 41.2467124952985387 98.6922598728703946 34.5036398364846804
 51.4007658731373667 37.7679396058374550 34.5036398364846804
 51.4007658731373596 47.9219929836762759 34.5036398364846804
 51.4007658731373738 58.0760463615150968 34.5036398364846804
 51.4007658731373667 68.2300997393539319 34.5036398364846804
 -19.6776077717343867 47.9219929836762688 34.5036398364846804
 61.5548192509761805 37.7679396058374408 34.5036398364846804
 61.5548192509761805 47.9219929836762759 34.5036398364846804
 -9.5235543938955711 27.6138862279986306 34.5036398364846804
 -12.7054286930813554 53.3042926398525125 29.9104073287120826
 -12.7054286930813625 63.4583460176913547 29.9104073287120826
 -12.7054286930813554 73.6123993955301614 29.9104073287120826
 -2.5513753152425345 32.9961858841748636 29.9104073287120826
 -2.5513753152425398 43.1502392620137059 29.9104073287120826
 -2.5513753152425345 53.3042926398525196 29.9104073287120826
 -2.5513753152425274 63.4583460176913547 29.9104073287120826
 -2.5513753152425238 73.6123993955301614 29.9104073287120826
 -22.8594820709201763 73.6123993955301472 29.9104073287120826
  7.6026780625962891 12.6880791284972148 29.9104073287120826
  7.6026780625962873 22.8421325063360463 29.9104073287120826
  7.6026780625962882 32.9961858841748636 29.9104073287120826
  7.6026780625962864 43.1502392620136916 29.9104073287120826
  7.6026780625962829 53.3042926398525339 29.9104073287120826
  7.6026780625962900 63.4583460176913476 29.9104073287120826
  7.6026780625962864 73.6123993955301614 29.9104073287120826
  7.6026780625962900 83.7664527733689823 29.9104073287120826
 17.7567314404351144 12.6880791284972148 29.9104073287120826
 17.7567314404351109 22.8421325063360499 29.9104073287120826
 17.7567314404351073 32.9961858841748636 29.9104073287120826
 17.7567314404351109 43.1502392620137059 29.9104073287120826
 17.7567314404351251 53.3042926398525196 29.9104073287120826
 17.7567314404351180 63.4583460176913547 29.9104073287120826
 17.7567314404351073 73.6123993955301614 29.9104073287120826
 17.7567314404351180 83.7664527733689823 29.9104073287120826
 27.9107848182739282 12.6880791284972148 29.9104073287120826
 27.9107848182739353 22.8421325063360463 29.9104073287120826
 27.9107848182739389 32.9961858841748708 29.9104073287120826
 27.9107848182739318 43.1502392620136987 29.9104073287120826
 27.9107848182739460 53.3042926398525196 29.9104073287120826
 27.9107848182739282 63.4583460176913547 29.9104073287120826
 27.9107848182739318 73.6123993955301614 29.9104073287120826
 27.9107848182739389 83.7664527733689965 29.9104073287120826
 27.9107848182739282 93.9205061512078032 29.9104073287120826
 38.0648381961127455 22.8421325063360428 29.9104073287120826
 38.0648381961127598 32.9961858841748636 29.9104073287120826
 38.0648381961127527 43.1502392620136845 29.9104073287120826
 38.0648381961127527 53.3042926398525054 29.9104073287120826
 38.0648381961127598 63.4583460176913547 29.9104073287120826
 38.0648381961127669 73.6123993955301614 29.9104073287120826
 38.0648381961127740 83.7664527733689823 29.9104073287120826
 38.0648381961127598 93.9205061512078316 29.9104073287120826
 48.2188915739515807 22.8421325063360392 29.9104073287120826
 48.2188915739515735 32.9961858841748708 29.9104073287120826
 48.2188915739515807 43.1502392620136987 29.9104073287120826
 48.2188915739515807 53.3042926398525196 29.9104073287120826
 48.2188915739515807 63.4583460176913405 29.9104073287120826
 48.2188915739515807 73.6123993955301614 29.9104073287120826
 48.2188915739515807 83.7664527733689823 29.9104073287120826
 -22.8594820709201763 63.4583460176913476 29.9104073287120826
 58.3729449517904015 32.9961858841748636 29.9104073287120826
 58.3729449517904015 43.1502392620137059 29.9104073287120826
 58.3729449517904015 53.3042926398525125 29.9104073287120826
 -12.7054286930813625 32.9961858841748850 29.9104073287120826
 -12.7054286930813536 43.1502392620136774 29.9104073287120826
 68.5269983296292082 32.9961858841748708 29.9104073287120826
 -2.5513753152425429 12.6880791284972219 29.9104073287120826
 -2.5513753152425274 22.8421325063360428 29.9104073287120826
 -11.9230661868452863 53.1538535047910443 31.1369658172089991
 -11.9230661868452898 63.3079068826298794 31.1369658172089991
 -11.9230661868452827 73.4619602604687287 31.1369658172089991
 -1.7690128090064672 32.8457467491133954 31.1369658172089991
 -1.7690128090064636 42.9998001269522305 31.1369658172089991
 -1.7690128090064619 53.1538535047910514 31.1369658172089991
 -1.7690128090064619 63.3079068826298794 31.1369658172089991
 -1.7690128090064583 73.4619602604687145 31.1369658172089991
 -22.0771195646841107 73.4619602604686719 31.1369658172089991
  8.3850405688323555 12.5376399934357501 31.1369658172089991
  8.3850405688323626 22.6916933712745674 31.1369658172089991
  8.3850405688323573 32.8457467491133954 31.1369658172089991
  8.3850405688323590 42.9998001269522305 31.1369658172089991
  8.3850405688323555 53.1538535047910656 31.1369658172089991
  8.3850405688323555 63.3079068826298794 31.1369658172089991
  8.3850405688323626 73.4619602604687003 31.1369658172089991
  8.3850405688323555 83.6160136383075212 31.1369658172089991
 18.5390939466711799 12.5376399934357465 31.1369658172089991
 18.5390939466711835 22.6916933712745745 31.1369658172089991
 18.5390939466711764 32.8457467491133954 31.1369658172089991
 18.5390939466711799 42.9998001269522305 31.1369658172089991
 18.5390939466711941 53.1538535047910585 31.1369658172089991
 18.5390939466711728 63.3079068826298794 31.1369658172089991
 18.5390939466711870 73.4619602604687003 31.1369658172089991
 18.5390939466711906 83.6160136383075496 31.1369658172089991
 28.6931473245099937 12.5376399934357465 31.1369658172089991
 28.6931473245100115 22.6916933712745745 31.1369658172089991
 28.6931473245100008 32.8457467491133954 31.1369658172089991
 28.6931473245100115 42.9998001269522376 31.1369658172089991
 28.6931473245099973 53.1538535047910514 31.1369658172089991
 28.6931473245099973 63.3079068826298794 31.1369658172089991
 28.6931473245100079 73.4619602604687145 31.1369658172089991
 28.6931473245100186 83.6160136383075212 31.1369658172089991
 28.6931473245100008 93.7700670161463563 31.1369658172089991
 38.8472007023488146 22.6916933712745710 31.1369658172089991
 38.8472007023488146 32.8457467491133954 31.1369658172089991
 38.8472007023488217 42.9998001269522376 31.1369658172089991
 38.8472007023488288 53.1538535047910443 31.1369658172089991
 38.8472007023488359 63.3079068826298794 31.1369658172089991
 38.8472007023488146 73.4619602604687003 31.1369658172089991
 38.8472007023488146 83.6160136383075354 31.1369658172089991
 38.8472007023488146 93.7700670161463563 31.1369658172089991
 49.0012540801876426 22.6916933712745816 31.1369658172089991
 49.0012540801876497 32.8457467491133954 31.1369658172089991
 49.0012540801876497 42.9998001269522234 31.1369658172089991
 49.0012540801876568 53.1538535047910585 31.1369658172089991
 49.0012540801876568 63.3079068826298723 31.1369658172089991
 49.0012540801876568 73.4619602604686861 31.1369658172089991
 -22.0771195646841036 53.1538535047910656 31.1369658172089991
 -22.0771195646841250 63.3079068826298794 31.1369658172089991
 59.1553074580264848 32.8457467491134096 31.1369658172089991
 59.1553074580264564 42.9998001269522305 31.1369658172089991
 59.1553074580264848 53.1538535047910443 31.1369658172089991
 -11.9230661868452863 32.8457467491134096 31.1369658172089991
 -11.9230661868452827 42.9998001269522234 31.1369658172089991
 69.3093608358652773 32.8457467491133954 31.1369658172089991
 -1.7690128090064841 12.5376399934357501 31.1369658172089991
 -1.7690128090064663 22.6916933712745745 31.1369658172089991
 -12.7693068705340753 53.4892661583552638 32.3724910513971196
 -12.7693068705340718 63.6433195361940847 32.3724910513971196
 -12.7693068705340753 73.7973729140329056 32.3724910513971196
 -2.6152534926952580 33.1811594026776078 32.3724910513971196
 -2.6152534926952562 43.3352127805164287 32.3724910513971196
 -2.6152534926952562 53.4892661583552638 32.3724910513971196
 -2.6152534926952526 63.6433195361940918 32.3724910513971196
 -2.6152534926952526 73.7973729140329056 32.3724910513971196
 -22.9233602483729015 73.7973729140328913 32.3724910513971196
  7.5387998851435611 12.8730526469999624 32.3724910513971196
  7.5387998851435620 23.0271060248387869 32.3724910513971196
  7.5387998851435682 33.1811594026776149 32.3724910513971196
  7.5387998851435611 43.3352127805164358 32.3724910513971196
  7.5387998851435611 53.4892661583552567 32.3724910513971196
  7.5387998851435718 63.6433195361940847 32.3724910513971196
  7.5387998851435647 73.7973729140329056 32.3724910513971196
  7.5387998851435682 83.9514262918717264 32.3724910513971196
 17.6928532629823856 12.8730526469999624 32.3724910513971196
 17.6928532629823820 23.0271060248387904 32.3724910513971196
 17.6928532629823891 33.1811594026776078 32.3724910513971196
 17.6928532629823820 43.3352127805164500 32.3724910513971196
 17.6928532629823820 53.4892661583552638 32.3724910513971196
 17.6928532629823820 63.6433195361940847 32.3724910513971196
 17.6928532629823927 73.7973729140329056 32.3724910513971196
 17.6928532629824034 83.9514262918717407 32.3724910513971196
 27.8469066408212029 12.8730526469999589 32.3724910513971196
 27.8469066408212100 23.0271060248387940 32.3724910513971196
 27.8469066408212065 33.1811594026776078 32.3724910513971196
 27.8469066408212100 43.3352127805164358 32.3724910513971196
 27.8469066408212029 53.4892661583552638 32.3724910513971196
 27.8469066408212171 63.6433195361940918 32.3724910513971196
 27.8469066408211923 73.7973729140329056 32.3724910513971196
 27.8469066408211994 83.9514262918717264 32.3724910513971196
 27.8469066408212100 94.1054796697105758 32.3724910513971196
 38.0009600186600167 23.0271060248387869 32.3724910513971196
 38.0009600186600167 33.1811594026776078 32.3724910513971196
 38.0009600186600238 43.3352127805164287 32.3724910513971196
 38.0009600186600380 53.4892661583552638 32.3724910513971196
 38.0009600186600380 63.6433195361941060 32.3724910513971196
 38.0009600186600380 73.7973729140328913 32.3724910513971196
 38.0009600186600380 83.9514262918717264 32.3724910513971196
 38.0009600186600238 94.1054796697105473 32.3724910513971196
 48.1550133964988447 23.0271060248387904 32.3724910513971196
 48.1550133964988518 33.1811594026776078 32.3724910513971196
 48.1550133964988589 43.3352127805164500 32.3724910513971196
 48.1550133964988589 53.4892661583552638 32.3724910513971196
 48.1550133964988589 63.6433195361940989 32.3724910513971196
 48.1550133964988589 73.7973729140328913 32.3724910513971196
 -22.9233602483728944 53.4892661583552567 32.3724910513971196
 -22.9233602483729086 63.6433195361940847 32.3724910513971196
 58.3090667743376727 33.1811594026776078 32.3724910513971196
 58.3090667743376656 43.3352127805164429 32.3724910513971196
 58.3090667743376727 53.4892661583552638 32.3724910513971196
 -12.7693068705340771 33.1811594026776149 32.3724910513971196
 -12.7693068705340895 43.3352127805164216 32.3724910513971196
 68.4631201521764865 33.1811594026776078 32.3724910513971196
 -2.6152534926952735 12.8730526469999589 32.3724910513971196
 -2.6152534926952447 23.0271060248388011 32.3724910513971196
 -11.9523808238291949 53.3195589656122735 33.6613989165339831
 -11.9523808238291966 63.4736123434511015 33.6613989165339831
 -11.9523808238291949 73.6276657212899295 33.6613989165339831
 -1.7983274459903704 33.0114522099346246 33.6613989165339831
 -1.7983274459903704 43.1655055877734526 33.6613989165339831
 -1.7983274459903740 53.3195589656122948 33.6613989165339831
 -1.7983274459903669 63.4736123434511015 33.6613989165339831
 -1.7983274459903740 73.6276657212899295 33.6613989165339831
 -22.1064342016680193 73.6276657212899153 33.6613989165339831
  8.3557259318484505 12.7033454542569793 33.6613989165339831
  8.3557259318484469 22.8573988320958037 33.6613989165339831
  8.3557259318484576 33.0114522099346317 33.6613989165339831
  8.3557259318484558 43.1655055877734526 33.6613989165339831
  8.3557259318484398 53.3195589656122948 33.6613989165339831
  8.3557259318484505 63.4736123434511157 33.6613989165339831
  8.3557259318484469 73.6276657212899295 33.6613989165339831
  8.3557259318484505 83.7817190991287504 33.6613989165339831
 18.5097793096872749 12.7033454542569793 33.6613989165339831
 18.5097793096872714 22.8573988320958037 33.6613989165339831
 18.5097793096872678 33.0114522099346388 33.6613989165339831
 18.5097793096872678 43.1655055877734526 33.6613989165339831
 18.5097793096872678 53.3195589656122948 33.6613989165339831
 18.5097793096872820 63.4736123434511086 33.6613989165339831
 18.5097793096872643 73.6276657212899295 33.6613989165339831
 18.5097793096872749 83.7817190991287504 33.6613989165339831
 28.6638326875260887 12.7033454542569793 33.6613989165339831
 28.6638326875260958 22.8573988320958073 33.6613989165339831
 28.6638326875260958 33.0114522099346317 33.6613989165339831
 28.6638326875261100 43.1655055877734526 33.6613989165339831
 28.6638326875260958 53.3195589656122877 33.6613989165339831
 28.6638326875260923 63.4736123434511015 33.6613989165339831
 28.6638326875260923 73.6276657212899295 33.6613989165339831
 28.6638326875260958 83.7817190991287504 33.6613989165339831
 28.6638326875260852 93.9357724769675855 33.6613989165339831
 38.8178860653649096 22.8573988320958001 33.6613989165339831
 38.8178860653649167 33.0114522099346317 33.6613989165339831
 38.8178860653649096 43.1655055877734526 33.6613989165339831
 38.8178860653649167 53.3195589656122735 33.6613989165339831
 38.8178860653649167 63.4736123434511086 33.6613989165339831
 38.8178860653649167 73.6276657212899153 33.6613989165339831
 38.8178860653649025 83.7817190991287504 33.6613989165339831
 38.8178860653649167 93.9357724769675997 33.6613989165339831
 48.9719394432037447 22.8573988320958037 33.6613989165339831
 48.9719394432037376 33.0114522099346388 33.6613989165339831
 48.9719394432037518 43.1655055877734526 33.6613989165339831
 48.9719394432037518 53.3195589656122948 33.6613989165339831
 48.9719394432037447 63.4736123434511086 33.6613989165339831
 48.9719394432037518 73.6276657212899295 33.6613989165339831
 -22.1064342016680193 53.3195589656122948 33.6613989165339831
 -22.1064342016680193 63.4736123434511228 33.6613989165339831
 59.1259928210425656 33.0114522099346246 33.6613989165339831
 59.1259928210425585 43.1655055877734526 33.6613989165339831
 59.1259928210425585 53.3195589656122735 33.6613989165339831
 -11.9523808238291984 33.0114522099346388 33.6613989165339831
 -11.9523808238291949 43.1655055877734526 33.6613989165339831
 69.2800461988814078 33.0114522099346175 33.6613989165339831
 -1.7983274459903971 12.7033454542569793 33.6613989165339831
 -1.7983274459903811 22.8573988320958037 33.6613989165339831
 -12.7214973021448099 53.7764417638515866 34.9122849291930493
 -12.7214973021448134 63.9304951416904217 34.9122849291930493
 -12.7214973021448117 74.0845485195292497 34.9122849291930493
 -2.5674439243059926 33.4683350081739519 34.9122849291930493
 -2.5674439243059943 43.6223883860127799 34.9122849291930493
 -2.5674439243059908 53.7764417638516079 34.9122849291930493
 -2.5674439243059908 63.9304951416904359 34.9122849291930493
 -2.5674439243059872 74.0845485195292497 34.9122849291930493
 -22.8755506799836397 74.0845485195292355 34.9122849291930493
  7.5866094535328292 13.1602282524963066 34.9122849291930493
  7.5866094535328301 23.3142816303351275 34.9122849291930493
  7.5866094535328337 33.4683350081739519 34.9122849291930493
  7.5866094535328301 43.6223883860127799 34.9122849291930493
  7.5866094535328337 53.7764417638516079 34.9122849291930493
  7.5866094535328337 63.9304951416904288 34.9122849291930493
  7.5866094535328266 74.0845485195292497 34.9122849291930493
  7.5866094535328479 84.2386018973680564 34.9122849291930493
 17.7406628313716510 13.1602282524963066 34.9122849291930493
 17.7406628313716510 23.3142816303351239 34.9122849291930493
 17.7406628313716475 33.4683350081739519 34.9122849291930493
 17.7406628313716510 43.6223883860127799 34.9122849291930493
 17.7406628313716617 53.7764417638516008 34.9122849291930493
 17.7406628313716546 63.9304951416904288 34.9122849291930493
 17.7406628313716652 74.0845485195292781 34.9122849291930493
 17.7406628313716617 84.2386018973680706 34.9122849291930493
 27.8947162092104790 13.1602282524963030 34.9122849291930493
 27.8947162092104790 23.3142816303351239 34.9122849291930493
 27.8947162092104719 33.4683350081739519 34.9122849291930493
 27.8947162092104719 43.6223883860127799 34.9122849291930493
 27.8947162092104719 53.7764417638516008 34.9122849291930493
 27.8947162092104683 63.9304951416904217 34.9122849291930493
 27.8947162092104648 74.0845485195292497 34.9122849291930493
 27.8947162092104755 84.2386018973680848 34.9122849291930493
 27.8947162092104790 94.3926552752069199 34.9122849291930493
 38.0487695870492928 23.3142816303351310 34.9122849291930493
 38.0487695870492928 33.4683350081739448 34.9122849291930493
 38.0487695870493070 43.6223883860127799 34.9122849291930493
 38.0487695870493070 53.7764417638515937 34.9122849291930493
 38.0487695870492999 63.9304951416904288 34.9122849291930493
 38.0487695870492928 74.0845485195292355 34.9122849291930493
 38.0487695870493141 84.2386018973680848 34.9122849291930493
 38.0487695870492928 94.3926552752069057 34.9122849291930493
 48.2028229648881066 23.3142816303351239 34.9122849291930493
 48.2028229648881279 33.4683350081739448 34.9122849291930493
 48.2028229648881421 43.6223883860127870 34.9122849291930493
 48.2028229648881208 53.7764417638516008 34.9122849291930493
 48.2028229648881208 63.9304951416904288 34.9122849291930493
 48.2028229648881279 74.0845485195292355 34.9122849291930493
 -22.8755506799836219 53.7764417638516008 34.9122849291930493
 -22.8755506799836503 63.9304951416904359 34.9122849291930493
 58.3568763427269417 33.4683350081739448 34.9122849291930493
 58.3568763427269417 43.6223883860127799 34.9122849291930493
 58.3568763427269488 53.7764417638516008 34.9122849291930493
 -12.7214973021448099 33.4683350081739590 34.9122849291930493
 -12.7214973021448223 43.6223883860127728 34.9122849291930493
 68.5109297205657555 33.4683350081739448 34.9122849291930493
 -2.5674439243060219 13.1602282524962977 34.9122849291930493
 -2.5674439243060050 23.3142816303351239 34.9122849291930493
 -13.8481859793319604 52.8936173816298449 35.2210765872877118
 -13.8481859793319604 63.0476707594686800 35.2210765872877118
 -13.8481859793319604 73.2017241373074938 35.2210765872877118
 -3.6941326014931413 32.5855106259521961 35.2210765872877118
 -3.6941326014931377 42.7395640037910312 35.2210765872877118
 -3.6941326014931413 52.8936173816298663 35.2210765872877118
 -3.6941326014931484 63.0476707594686729 35.2210765872877118
 -3.6941326014931413 73.2017241373074938 35.2210765872877118
 -24.0022393571707902 73.2017241373074938 35.2210765872877118
  6.4599207763456832 12.2774038702745489 35.2210765872877118
  6.4599207763456858 22.4314572481133752 35.2210765872877118
  6.4599207763456832 32.5855106259521961 35.2210765872877118
  6.4599207763456850 42.7395640037910312 35.2210765872877118
  6.4599207763456761 52.8936173816298520 35.2210765872877118
  6.4599207763456867 63.0476707594686943 35.2210765872877118
  6.4599207763456796 73.2017241373074938 35.2210765872877118
  6.4599207763456761 83.3557775151463147 35.2210765872877118
 16.6139741541845041 12.2774038702745507 35.2210765872877118
 16.6139741541845041 22.4314572481133752 35.2210765872877118
 16.6139741541845041 32.5855106259521961 35.2210765872877118
 16.6139741541845041 42.7395640037910312 35.2210765872877118
 16.6139741541845041 52.8936173816298520 35.2210765872877118
 16.6139741541845112 63.0476707594686872 35.2210765872877118
 16.6139741541845005 73.2017241373075223 35.2210765872877118
 16.6139741541845076 83.3557775151463289 35.2210765872877118
 26.7680275320233321 12.2774038702745507 35.2210765872877118
 26.7680275320233356 22.4314572481133752 35.2210765872877118
 26.7680275320233250 32.5855106259521961 35.2210765872877118
 26.7680275320233392 42.7395640037910312 35.2210765872877118
 26.7680275320233392 52.8936173816298520 35.2210765872877118
 26.7680275320233321 63.0476707594686872 35.2210765872877118
 26.7680275320233214 73.2017241373074938 35.2210765872877118
 26.7680275320233214 83.3557775151463147 35.2210765872877118
 26.7680275320233250 93.5098308929851498 35.2210765872877118
 36.9220809098621530 22.4314572481133752 35.2210765872877118
 36.9220809098621601 32.5855106259521961 35.2210765872877118
 36.9220809098621388 42.7395640037910312 35.2210765872877118
 36.9220809098621601 52.8936173816298378 35.2210765872877118
 36.9220809098621459 63.0476707594686800 35.2210765872877118
 36.9220809098621459 73.2017241373074796 35.2210765872877118
 36.9220809098621459 83.3557775151463289 35.2210765872877118
 36.9220809098621459 93.5098308929851640 35.2210765872877118
 47.0761342877009668 22.4314572481133716 35.2210765872877118
 47.0761342877009739 32.5855106259521961 35.2210765872877118
 47.0761342877009810 42.7395640037910312 35.2210765872877118
 47.0761342877009881 52.8936173816298520 35.2210765872877118
 47.0761342877009881 63.0476707594686872 35.2210765872877118
 47.0761342877009952 73.2017241373074796 35.2210765872877118
 47.0761342877009952 83.3557775151463147 35.2210765872877118
 -24.0022393571707937 63.0476707594686800 35.2210765872877118
 57.2301876655398019 32.5855106259522103 35.2210765872877118
 57.2301876655398019 42.7395640037910312 35.2210765872877118
 57.2301876655398019 52.8936173816298520 35.2210765872877118
 -13.8481859793319639 32.5855106259522174 35.2210765872877118
 -13.8481859793319551 42.7395640037910312 35.2210765872877118
 67.3842410433786085 32.5855106259521889 35.2210765872877118
 -3.6941326014931568 12.2774038702745543 35.2210765872877118
 -3.6941326014931377 22.4314572481133787 35.2210765872877118
 -12.1017894420452912 53.0714242153727369 29.0890389682395849
 -12.1017894420452770 63.2254775932115507 29.0890389682395849
 -12.1017894420452805 73.3795309710503716 29.0890389682395849
 -1.9477360642064632 32.7633174596950738 29.0890389682395849
 -1.9477360642064632 42.9173708375339018 29.0890389682395849
 -1.9477360642064632 53.0714242153727369 29.0890389682395849
 -1.9477360642064596 63.2254775932115578 29.0890389682395849
 -1.9477360642064596 73.3795309710503716 29.0890389682395849
 -22.2558428198841121 73.3795309710503574 29.0890389682395849
  8.2063173136323595 12.4552107040174285 29.0890389682395849
  8.2063173136323542 22.6092640818562565 29.0890389682395849
  8.2063173136323559 32.7633174596950809 29.0890389682395849
  8.2063173136323577 42.9173708375338947 29.0890389682395849
  8.2063173136323506 53.0714242153727298 29.0890389682395849
  8.2063173136323755 63.2254775932115507 29.0890389682395849
  8.2063173136323684 73.3795309710503858 29.0890389682395849
  8.2063173136323648 83.5335843488892209 29.0890389682395849
 18.3603706914711857 12.4552107040174320 29.0890389682395849
 18.3603706914711786 22.6092640818562636 29.0890389682395849
 18.3603706914711751 32.7633174596950738 29.0890389682395849
 18.3603706914711751 42.9173708375339018 29.0890389682395849
 18.3603706914711751 53.0714242153727369 29.0890389682395849
 18.3603706914711857 63.2254775932115507 29.0890389682395849
 18.3603706914711857 73.3795309710503716 29.0890389682395849
 18.3603706914711964 83.5335843488892067 29.0890389682395849
 28.5144240693100031 12.4552107040174285 29.0890389682395849
 28.5144240693100031 22.6092640818562565 29.0890389682395849
 28.5144240693099960 32.7633174596950738 29.0890389682395849
 28.5144240693099995 42.9173708375339089 29.0890389682395849
 28.5144240693099960 53.0714242153727298 29.0890389682395849
 28.5144240693100173 63.2254775932115507 29.0890389682395849
 28.5144240693099924 73.3795309710503716 29.0890389682395849
 28.5144240693100031 83.5335843488892067 29.0890389682395849
 28.5144240693100137 93.6876377267280276 29.0890389682395849
 38.6684774471488097 22.6092640818562565 29.0890389682395849
 38.6684774471488169 32.7633174596950738 29.0890389682395849
 38.6684774471488240 42.9173708375339018 29.0890389682395849
 38.6684774471488311 53.0714242153727298 29.0890389682395849
 38.6684774471488240 63.2254775932115507 29.0890389682395849
 38.6684774471488311 73.3795309710503574 29.0890389682395849
 38.6684774471488311 83.5335843488892067 29.0890389682395849
 38.6684774471488240 93.6876377267280134 29.0890389682395849
 48.8225308249876377 22.6092640818562494 29.0890389682395849
 48.8225308249876520 32.7633174596950738 29.0890389682395849
 48.8225308249876662 42.9173708375339018 29.0890389682395849
 48.8225308249876377 53.0714242153727369 29.0890389682395849
 48.8225308249876448 63.2254775932115507 29.0890389682395849
 48.8225308249876591 73.3795309710503858 29.0890389682395849
 -22.2558428198841192 53.0714242153727298 29.0890389682395849
 -22.2558428198841192 63.2254775932115436 29.0890389682395849
 58.9765842028264586 32.7633174596950809 29.0890389682395849
 58.9765842028264657 42.9173708375339089 29.0890389682395849
 58.9765842028264800 53.0714242153727298 29.0890389682395849
 -12.1017894420452858 32.7633174596950951 29.0890389682395849
 -12.1017894420452947 42.9173708375338876 29.0890389682395849
 69.1306375806652795 32.7633174596950667 29.0890389682395849
 -1.9477360642064836 12.4552107040174320 29.0890389682395849
 -1.9477360642064632 22.6092640818562600 29.0890389682395849
 -13.5239162687358849 52.6531763053737336 29.9240230873953728
 -13.5239162687358849 62.8072296832125545 29.9240230873953728
 -13.5239162687358849 72.9612830610513754 29.9240230873953728
 -3.3698628908970640 32.3450695496960705 29.9240230873953728
 -3.3698628908970623 42.4991229275349056 29.9240230873953728
 -3.3698628908970676 52.6531763053737407 29.9240230873953728
 -3.3698628908970640 62.8072296832125616 29.9240230873953728
 -3.3698628908970640 72.9612830610513754 29.9240230873953728
 -23.6779696465747129 72.9612830610513612 29.9240230873953728
  6.7841904869417586 12.0369627940184216 29.9240230873953728
  6.7841904869417604 22.1910161718572461 29.9240230873953728
  6.7841904869417622 32.3450695496960705 29.9240230873953728
  6.7841904869417569 42.4991229275348985 29.9240230873953728
  6.7841904869417604 52.6531763053737336 29.9240230873953728
  6.7841904869417604 62.8072296832125545 29.9240230873953728
  6.7841904869417640 72.9612830610513896 29.9240230873953728
  6.7841904869417675 83.1153364388902105 29.9240230873953728
 16.9382438647805813 12.0369627940184252 29.9240230873953728
 16.9382438647805884 22.1910161718572496 29.9240230873953728
 16.9382438647805778 32.3450695496960705 29.9240230873953728
 16.9382438647805884 42.4991229275349056 29.9240230873953728
 16.9382438647805849 52.6531763053737407 29.9240230873953728
 16.9382438647805778 62.8072296832125545 29.9240230873953728
 16.9382438647805742 72.9612830610513754 29.9240230873953728
 16.9382438647805884 83.1153364388902105 29.9240230873953728
 27.0922972426193951 12.0369627940184269 29.9240230873953728
 27.0922972426194129 22.1910161718572461 29.9240230873953728
 27.0922972426194022 32.3450695496960705 29.9240230873953728
 27.0922972426194164 42.4991229275349056 29.9240230873953728
 27.0922972426194022 52.6531763053737407 29.9240230873953728
 27.0922972426193915 62.8072296832125545 29.9240230873953728
 27.0922972426193915 72.9612830610513754 29.9240230873953728
 27.0922972426194022 83.1153364388902105 29.9240230873953728
 27.0922972426194129 93.2693898167290172 29.9240230873953728
 37.2463506204582160 22.1910161718572461 29.9240230873953728
 37.2463506204582373 32.3450695496960705 29.9240230873953728
 37.2463506204582302 42.4991229275348985 29.9240230873953728
 37.2463506204582302 52.6531763053737194 29.9240230873953728
 37.2463506204582302 62.8072296832125545 29.9240230873953728
 37.2463506204582302 72.9612830610513612 29.9240230873953728
 37.2463506204582373 83.1153364388901963 29.9240230873953728
 37.2463506204582302 93.2693898167290172 29.9240230873953728
 47.4004039982970582 22.1910161718572496 29.9240230873953728
 47.4004039982970582 32.3450695496960776 29.9240230873953728
 47.4004039982970511 42.4991229275348985 29.9240230873953728
 47.4004039982970582 52.6531763053737407 29.9240230873953728
 47.4004039982970582 62.8072296832125545 29.9240230873953728
 47.4004039982970653 72.9612830610513470 29.9240230873953728
 47.4004039982970511 83.1153364388901963 29.9240230873953728
 -23.6779696465747023 62.8072296832125474 29.9240230873953728
 57.5544573761358720 32.3450695496960847 29.9240230873953728
 57.5544573761358649 42.4991229275348985 29.9240230873953728
 57.5544573761358791 52.6531763053737336 29.9240230873953728
 -13.5239162687358849 32.3450695496960918 29.9240230873953728
 -13.5239162687358832 42.4991229275348985 29.9240230873953728
 67.7085107539746787 32.3450695496960634 29.9240230873953728
 -3.3698628908970800 12.0369627940184269 29.9240230873953728
 -3.3698628908970640 22.1910161718572567 29.9240230873953728
 -13.0393427351901732 54.2910311895206164 29.8159890150975393
 -13.0393427351901696 64.4450845673594443 29.8159890150975393
 -13.0393427351901749 74.5991379451982652 29.8159890150975393
 -2.8852893573513452 33.9829244338429675 29.8159890150975393
 -2.8852893573513452 44.1369778116818026 29.8159890150975393
 -2.8852893573513470 54.2910311895206235 29.8159890150975393
 -2.8852893573513434 64.4450845673594443 29.8159890150975393
 -2.8852893573513470 74.5991379451982652 29.8159890150975393
  7.2687640204874739  3.5207643003264986 29.8159890150975393
  7.2687640204874722 13.6748176781653221 29.8159890150975393
  7.2687640204874731 23.8288710560041466 29.8159890150975393
  7.2687640204874739 33.9829244338429675 29.8159890150975393
  7.2687640204874793 44.1369778116818026 29.8159890150975393
  7.2687640204874775 54.2910311895206235 29.8159890150975393
  7.2687640204874775 64.4450845673594586 29.8159890150975393
  7.2687640204874668 74.5991379451982652 29.8159890150975393
  7.2687640204874846 84.7531913230371003 29.8159890150975393
 17.4228173983262948 13.6748176781653275 29.8159890150975393
 17.4228173983262948 23.8288710560041466 29.8159890150975393
 17.4228173983262948 33.9829244338429675 29.8159890150975393
 17.4228173983262984 44.1369778116818026 29.8159890150975393
 17.4228173983262984 54.2910311895206235 29.8159890150975393
 17.4228173983262948 64.4450845673594443 29.8159890150975393
 17.4228173983262877 74.5991379451982652 29.8159890150975393
 17.4228173983263090 84.7531913230371003 29.8159890150975393
 27.5768707761651157 13.6748176781653203 29.8159890150975393
 27.5768707761651299 23.8288710560041537 29.8159890150975393
 27.5768707761651193 33.9829244338429675 29.8159890150975393
 27.5768707761651157 44.1369778116817955 29.8159890150975393
 27.5768707761651122 54.2910311895206164 29.8159890150975393
 27.5768707761651122 64.4450845673594443 29.8159890150975393
 27.5768707761651157 74.5991379451982795 29.8159890150975393
 27.5768707761651299 84.7531913230371003 29.8159890150975393
 27.5768707761651122 94.9072447008759070 29.8159890150975393
 37.7309241540039437 23.8288710560041501 29.8159890150975393
 37.7309241540039437 33.9829244338429675 29.8159890150975393
 37.7309241540039437 44.1369778116817884 29.8159890150975393
 37.7309241540039437 54.2910311895206235 29.8159890150975393
 37.7309241540039437 64.4450845673594443 29.8159890150975393
 37.7309241540039437 74.5991379451982652 29.8159890150975393
 37.7309241540039437 84.7531913230371003 29.8159890150975393
 37.7309241540039508 94.9072447008759355 29.8159890150975393
 47.8849775318427504 23.8288710560041466 29.8159890150975393
 47.8849775318427646 33.9829244338429675 29.8159890150975393
 47.8849775318427788 44.1369778116818097 29.8159890150975393
 47.8849775318427646 54.2910311895206235 29.8159890150975393
 47.8849775318427504 64.4450845673594586 29.8159890150975393
 47.8849775318427646 74.5991379451982652 29.8159890150975393
 -23.1933961130289816 54.2910311895206306 29.8159890150975393
 -23.1933961130289958 64.4450845673594443 29.8159890150975393
 58.0390309096815997 33.9829244338429817 29.8159890150975393
 58.0390309096815784 44.1369778116817955 29.8159890150975393
 58.0390309096815926 54.2910311895206235 29.8159890150975393
 -13.0393427351901661 33.9829244338429817 29.8159890150975393
 -13.0393427351901643 44.1369778116818097 29.8159890150975393
 68.1930842875204064 33.9829244338429746 29.8159890150975393
 -2.8852893573513616 13.6748176781653239 29.8159890150975393
 -2.8852893573513647 23.8288710560041537 29.8159890150975393
 -11.0406760060046896 53.8306789433863031 31.0942039427118324
 -11.0406760060046949 63.9847323212251311 31.0942039427118324
 -11.0406760060046985 74.1387856990639449 31.0942039427118324
 -0.8866226281658758 33.5225721877086471 31.0942039427118324
 -0.8866226281658740 43.6766255655474822 31.0942039427118324
 -0.8866226281658776 53.8306789433863031 31.0942039427118324
 -0.8866226281658740 63.9847323212251311 31.0942039427118324
 -0.8866226281658705 74.1387856990639449 31.0942039427118324
 -21.1947293838435193 74.1387856990639307 31.0942039427118324
  9.2674307496729469 13.2144654320310018 31.0942039427118324
  9.2674307496729504 23.3685188098698262 31.0942039427118324
  9.2674307496729504 33.5225721877086471 31.0942039427118324
  9.2674307496729469 43.6766255655474751 31.0942039427118324
  9.2674307496729469 53.8306789433863173 31.0942039427118324
  9.2674307496729504 63.9847323212251311 31.0942039427118324
  9.2674307496729469 74.1387856990639449 31.0942039427118324
  9.2674307496729398 84.2928390769027942 31.0942039427118324
 19.4214841275117713 13.2144654320310035 31.0942039427118324
 19.4214841275117678 23.3685188098698262 31.0942039427118324
 19.4214841275117678 33.5225721877086471 31.0942039427118324
 19.4214841275117678 43.6766255655474751 31.0942039427118324
 19.4214841275117678 53.8306789433863031 31.0942039427118324
 19.4214841275117713 63.9847323212251453 31.0942039427118324
 19.4214841275117678 74.1387856990639449 31.0942039427118324
 19.4214841275117784 84.2928390769027942 31.0942039427118324
 29.5755375053505922 13.2144654320310000 31.0942039427118324
 29.5755375053505958 23.3685188098698262 31.0942039427118324
 29.5755375053505887 33.5225721877086471 31.0942039427118324
 29.5755375053506029 43.6766255655474822 31.0942039427118324
 29.5755375053506029 53.8306789433863102 31.0942039427118324
 29.5755375053505958 63.9847323212251382 31.0942039427118324
 29.5755375053505851 74.1387856990639449 31.0942039427118324
 29.5755375053505993 84.2928390769027658 31.0942039427118324
 29.5755375053506135 94.4468924547415867 31.0942039427118324
 39.7295908831894096 23.3685188098698191 31.0942039427118324
 39.7295908831894238 33.5225721877086613 31.0942039427118324
 39.7295908831894238 43.6766255655474680 31.0942039427118324
 39.7295908831894167 53.8306789433863031 31.0942039427118324
 39.7295908831894167 63.9847323212251240 31.0942039427118324
 39.7295908831894167 74.1387856990639449 31.0942039427118324
 39.7295908831894167 84.2928390769027942 31.0942039427118324
 39.7295908831894238 94.4468924547416151 31.0942039427118324
 49.8836442610282305 23.3685188098698262 31.0942039427118324
 49.8836442610282447 33.5225721877086613 31.0942039427118324
 49.8836442610282518 43.6766255655474822 31.0942039427118324
 49.8836442610282447 53.8306789433863173 31.0942039427118324
 49.8836442610282376 63.9847323212251240 31.0942039427118324
 49.8836442610282376 74.1387856990639449 31.0942039427118324
 -21.1947293838435087 53.8306789433863102 31.0942039427118324
 -21.1947293838435300 63.9847323212251169 31.0942039427118324
 60.0376976388670514 33.5225721877086542 31.0942039427118324
 60.0376976388670585 43.6766255655474822 31.0942039427118324
 60.0376976388670656 53.8306789433862960 31.0942039427118324
 -11.0406760060046931 33.5225721877086613 31.0942039427118324
 -11.0406760060047073 43.6766255655474680 31.0942039427118324
 -0.8866226281658884  3.0604120541921733 31.0942039427118324
 -0.8866226281658918 13.2144654320310035 31.0942039427118324
 -0.8866226281658731 23.3685188098698227 31.0942039427118324
 -11.5546364167542457 52.1063152856912026 31.2114045751024634
 -11.5546364167542546 62.2603686635300448 31.2114045751024634
 -11.5546364167542421 72.4144220413688799 31.2114045751024634
 -1.4005830389154266 31.7982085300135644 31.2114045751024634
 -1.4005830389154212 41.9522619078523817 31.2114045751024634
 -1.4005830389154212 52.1063152856912097 31.2114045751024634
 -1.4005830389154283 62.2603686635300448 31.2114045751024634
 -1.4005830389154212 72.4144220413688799 31.2114045751024634
 -21.7086897945930701 72.4144220413688515 31.2114045751024634
  8.7534703389233961 11.4901017743359120 31.2114045751024634
  8.7534703389234014 21.6441551521747328 31.2114045751024634
  8.7534703389233979 31.7982085300135537 31.2114045751024634
  8.7534703389233961 41.9522619078523817 31.2114045751024634
  8.7534703389233925 52.1063152856912097 31.2114045751024634
  8.7534703389233925 62.2603686635300448 31.2114045751024634
  8.7534703389234068 72.4144220413688799 31.2114045751024634
  8.7534703389233961 82.5684754192077008 31.2114045751024634
 18.9075237167622170 11.4901017743359102 31.2114045751024634
 18.9075237167622277 21.6441551521747328 31.2114045751024634
 18.9075237167622205 31.7982085300135573 31.2114045751024634
 18.9075237167622205 41.9522619078523817 31.2114045751024634
 18.9075237167622205 52.1063152856912239 31.2114045751024634
 18.9075237167622099 62.2603686635300448 31.2114045751024634
 18.9075237167622170 72.4144220413688657 31.2114045751024634
 18.9075237167622170 82.5684754192076866 31.2114045751024634
 -1.4005830389154319 82.5684754192077008 31.2114045751024634
 29.0615770946010450 21.6441551521747328 31.2114045751024634
 29.0615770946010485 31.7982085300135573 31.2114045751024634
 29.0615770946010556 41.9522619078523888 31.2114045751024634
 29.0615770946010379 52.1063152856912097 31.2114045751024634
 29.0615770946010343 62.2603686635300448 31.2114045751024634
 29.0615770946010485 72.4144220413688799 31.2114045751024634
 29.0615770946010308 82.5684754192076866 31.2114045751024634
 29.0615770946010485 92.7225287970465217 31.2114045751024634
 39.2156304724398552 21.6441551521747328 31.2114045751024634
 39.2156304724398552 31.7982085300135644 31.2114045751024634
 39.2156304724398623 41.9522619078523746 31.2114045751024634
 39.2156304724398765 52.1063152856912026 31.2114045751024634
 39.2156304724398552 62.2603686635300306 31.2114045751024634
 39.2156304724398836 72.4144220413688515 31.2114045751024634
 39.2156304724398552 82.5684754192077150 31.2114045751024634
 39.2156304724398694 92.7225287970465217 31.2114045751024634
 49.3696838502786761 21.6441551521747328 31.2114045751024634
 49.3696838502786903 31.7982085300135608 31.2114045751024634
 49.3696838502786974 41.9522619078523960 31.2114045751024634
 49.3696838502786903 52.1063152856912097 31.2114045751024634
 49.3696838502786974 62.2603686635300448 31.2114045751024634
 49.3696838502787045 72.4144220413688515 31.2114045751024634
 -21.7086897945930630 52.1063152856912311 31.2114045751024634
 -21.7086897945930808 62.2603686635300519 31.2114045751024634
 59.5237372281175112 31.7982085300135573 31.2114045751024634
 59.5237372281174970 41.9522619078523817 31.2114045751024634
 59.5237372281175112 52.1063152856912026 31.2114045751024634
 -11.5546364167542528 31.7982085300135644 31.2114045751024634
 -11.5546364167542492 41.9522619078523746 31.2114045751024634
 69.6777906059563179 31.7982085300135466 31.2114045751024634
 -1.4005830389154501 11.4901017743359031 31.2114045751024634
 -1.4005830389154186 21.6441551521747364 31.2114045751024634
 -13.6504011098863174 52.8131696385456877 32.3960739248114109
 -13.6504011098862996 62.9672230163845157 32.3960739248114109
 -13.6504011098863050 73.1212763942233437 32.3960739248114109
 -3.4963477320474858 32.5050628828680317 32.3960739248114109
 -3.4963477320474841 42.6591162607068597 32.3960739248114109
 -3.4963477320474823 52.8131696385456806 32.3960739248114109
 -3.4963477320474823 62.9672230163845086 32.3960739248114109
 -3.4963477320474858 73.1212763942233437 32.3960739248114109
 -23.8044544877251383 73.1212763942233153 32.3960739248114109
  6.6577056457913333 12.1969561271903828 32.3960739248114109
  6.6577056457913324 22.3510095050292144 32.3960739248114109
  6.6577056457913351 32.5050628828680317 32.3960739248114109
  6.6577056457913333 42.6591162607068597 32.3960739248114109
  6.6577056457913280 52.8131696385457019 32.3960739248114109
  6.6577056457913493 62.9672230163845086 32.3960739248114109
  6.6577056457913422 73.1212763942233437 32.3960739248114109
  6.6577056457913493 83.2753297720621504 32.3960739248114109
 16.8117590236301666 12.1969561271903828 32.3960739248114109
 16.8117590236301560 22.3510095050292108 32.3960739248114109
 16.8117590236301524 32.5050628828680317 32.3960739248114109
 16.8117590236301524 42.6591162607068597 32.3960739248114109
 16.8117590236301560 52.8131696385456877 32.3960739248114109
 16.8117590236301631 62.9672230163845157 32.3960739248114109
 16.8117590236301595 73.1212763942233437 32.3960739248114109
 16.8117590236301595 83.2753297720621504 32.3960739248114109
 26.9658124014689804 12.1969561271903810 32.3960739248114109
 26.9658124014689911 22.3510095050292108 32.3960739248114109
 26.9658124014689804 32.5050628828680317 32.3960739248114109
 26.9658124014689804 42.6591162607068597 32.3960739248114109
 26.9658124014689733 52.8131696385456877 32.3960739248114109
 26.9658124014689911 62.9672230163845086 32.3960739248114109
 26.9658124014689626 73.1212763942233437 32.3960739248114109
 26.9658124014689875 83.2753297720621504 32.3960739248114109
 26.9658124014689911 93.4293831499009571 32.3960739248114109
 37.1198657793077942 22.3510095050292001 32.3960739248114109
 37.1198657793077942 32.5050628828680317 32.3960739248114109
 37.1198657793077942 42.6591162607068526 32.3960739248114109
 37.1198657793078084 52.8131696385456877 32.3960739248114109
 37.1198657793078013 62.9672230163845086 32.3960739248114109
 37.1198657793078084 73.1212763942233153 32.3960739248114109
 37.1198657793078013 83.2753297720621504 32.3960739248114109
 37.1198657793078013 93.4293831499009571 32.3960739248114109
 47.2739191571466293 22.3510095050292037 32.3960739248114109
 47.2739191571466293 32.5050628828680317 32.3960739248114109
 47.2739191571466364 42.6591162607068668 32.3960739248114109
 47.2739191571466293 52.8131696385456877 32.3960739248114109
 47.2739191571466364 62.9672230163845086 32.3960739248114109
 47.2739191571466293 73.1212763942233153 32.3960739248114109
 47.2739191571466435 83.2753297720621504 32.3960739248114109
 -23.8044544877251418 62.9672230163845015 32.3960739248114109
 57.4279725349854360 32.5050628828680317 32.3960739248114109
 57.4279725349854360 42.6591162607068597 32.3960739248114109
 57.4279725349854431 52.8131696385456877 32.3960739248114109
 -13.6504011098863103 32.5050628828680459 32.3960739248114109
 -13.6504011098863209 42.6591162607068526 32.3960739248114109
 67.5820259128242782 32.5050628828680317 32.3960739248114109
 -3.4963477320475063 12.1969561271903881 32.3960739248114109
 -3.4963477320474903 22.3510095050292215 32.3960739248114109
 -13.1279518927138614 54.5390727863840326 32.2953594582031513
 -13.1279518927138632 64.6931261642228606 32.2953594582031513
 -13.1279518927138525 74.8471795420616814 32.2953594582031513
 -2.9738985148750405 34.2309660307063908 32.2953594582031513
 -2.9738985148750370 44.3850194085452188 32.2953594582031513
 -2.9738985148750423 54.5390727863840397 32.2953594582031513
 -2.9738985148750459 64.6931261642228606 32.2953594582031513
 -2.9738985148750388 74.8471795420616814 32.2953594582031513
  7.1801548629637777  3.7688058971899121 32.2953594582031513
  7.1801548629637795 13.9228592750287401 32.2953594582031513
  7.1801548629637812 24.0769126528675628 32.2953594582031513
  7.1801548629637857 34.2309660307063837 32.2953594582031513
  7.1801548629637768 44.3850194085452188 32.2953594582031513
  7.1801548629637750 54.5390727863840397 32.2953594582031513
  7.1801548629637786 64.6931261642228606 32.2953594582031513
  7.1801548629637928 74.8471795420616814 32.2953594582031513
  7.1801548629637963 85.0012329199005023 32.2953594582031513
 17.3342082408026030 13.9228592750287365 32.2953594582031513
 17.3342082408026066 24.0769126528675628 32.2953594582031513
 17.3342082408026030 34.2309660307063837 32.2953594582031513
 17.3342082408025995 44.3850194085452188 32.2953594582031513
 17.3342082408025995 54.5390727863840397 32.2953594582031513
 17.3342082408025995 64.6931261642228606 32.2953594582031513
 17.3342082408025959 74.8471795420616814 32.2953594582031513
 17.3342082408026066 85.0012329199005023 32.2953594582031513
 27.4882616186414275 13.9228592750287383 32.2953594582031513
 27.4882616186414275 24.0769126528675699 32.2953594582031513
 27.4882616186414275 34.2309660307063837 32.2953594582031513
 27.4882616186414310 44.3850194085452188 32.2953594582031513
 27.4882616186414239 54.5390727863840397 32.2953594582031513
 27.4882616186414204 64.6931261642228606 32.2953594582031513
 27.4882616186414239 74.8471795420616957 32.2953594582031513
 27.4882616186414346 85.0012329199005023 32.2953594582031513
 27.4882616186414381 95.1552862977393374 32.2953594582031513
 37.6423149964802377 24.0769126528675557 32.2953594582031513
 37.6423149964802448 34.2309660307063837 32.2953594582031513
 37.6423149964802519 44.3850194085452188 32.2953594582031513
 37.6423149964802448 54.5390727863840326 32.2953594582031513
 37.6423149964802377 64.6931261642228748 32.2953594582031513
 37.6423149964802448 74.8471795420616672 32.2953594582031513
 37.6423149964802377 85.0012329199005023 32.2953594582031513
 37.6423149964802803 95.1552862977393374 32.2953594582031513
 47.7963683743190728 24.0769126528675557 32.2953594582031513
 47.7963683743190870 34.2309660307063979 32.2953594582031513
 47.7963683743190728 44.3850194085452188 32.2953594582031513
 47.7963683743190728 54.5390727863840397 32.2953594582031513
 47.7963683743190728 64.6931261642228606 32.2953594582031513
 47.7963683743190728 74.8471795420616814 32.2953594582031513
 -23.2820052705526805 54.5390727863840326 32.2953594582031513
 -23.2820052705526948 64.6931261642228890 32.2953594582031513
 57.9504217521578937 34.2309660307063837 32.2953594582031513
 57.9504217521578724 44.3850194085452188 32.2953594582031513
 57.9504217521578937 54.5390727863840468 32.2953594582031513
 -13.1279518927138721 34.2309660307063979 32.2953594582031513
 -13.1279518927138668 44.3850194085452046 32.2953594582031513
 68.1044751299967004 34.2309660307063908 32.2953594582031513
 -2.9738985148750525 13.9228592750287419 32.2953594582031513
 -2.9738985148750379 24.0769126528675663 32.2953594582031513
 -11.0271230594693748 53.9319518338402304 33.5856994142773573
 -11.0271230594693730 64.0860052116790371 33.5856994142773573
 -11.0271230594693677 74.2400585895178864 33.5856994142773573
 -0.8730696816305503 33.6238450781625673 33.5856994142773573
 -0.8730696816305503 43.7778984560014024 33.5856994142773573
 -0.8730696816305539 53.9319518338402375 33.5856994142773573
 -0.8730696816305468 64.0860052116790513 33.5856994142773573
 -0.8730696816305539 74.2400585895178722 33.5856994142773573
 -21.1811764373081957 74.2400585895178580 33.5856994142773573
  9.2809836962082706 13.3157383224849220 33.5856994142773573
  9.2809836962082706 23.4697917003237500 33.5856994142773573
  9.2809836962082741 33.6238450781625673 33.5856994142773573
  9.2809836962082670 43.7778984560014095 33.5856994142773573
  9.2809836962082670 53.9319518338402233 33.5856994142773573
  9.2809836962082706 64.0860052116790371 33.5856994142773573
  9.2809836962082706 74.2400585895178722 33.5856994142773573
  9.2809836962082706 84.3941119673567215 33.5856994142773573
 19.4350370740470950 13.3157383224849202 33.5856994142773573
 19.4350370740470986 23.4697917003237464 33.5856994142773573
 19.4350370740470879 33.6238450781625673 33.5856994142773573
 19.4350370740470950 43.7778984560014024 33.5856994142773573
 19.4350370740470986 53.9319518338402446 33.5856994142773573
 19.4350370740470915 64.0860052116790371 33.5856994142773573
 19.4350370740470879 74.2400585895178722 33.5856994142773573
 19.4350370740470950 84.3941119673567215 33.5856994142773573
 29.5890904518859088 13.3157383224849220 33.5856994142773573
 29.5890904518859195 23.4697917003237535 33.5856994142773573
 29.5890904518859159 33.6238450781625673 33.5856994142773573
 29.5890904518859301 43.7778984560014024 33.5856994142773573
 29.5890904518859017 53.9319518338402304 33.5856994142773573
 29.5890904518859088 64.0860052116790371 33.5856994142773573
 29.5890904518859159 74.2400585895178722 33.5856994142773573
 29.5890904518859088 84.3941119673567215 33.5856994142773573
 29.5890904518859230 94.5481653451955140 33.5856994142773573
 39.7431438297247297 23.4697917003237428 33.5856994142773573
 39.7431438297247297 33.6238450781625673 33.5856994142773573
 39.7431438297247297 43.7778984560014024 33.5856994142773573
 39.7431438297247439 53.9319518338402233 33.5856994142773573
 39.7431438297247439 64.0860052116790513 33.5856994142773573
 39.7431438297247439 74.2400585895178580 33.5856994142773573
 39.7431438297247297 84.3941119673567073 33.5856994142773573
 39.7431438297247368 94.5481653451955140 33.5856994142773573
 49.8971972075635506 23.4697917003237428 33.5856994142773573
 49.8971972075635648 33.6238450781625673 33.5856994142773573
 49.8971972075635648 43.7778984560014024 33.5856994142773573
 49.8971972075635577 53.9319518338402233 33.5856994142773573
 49.8971972075635648 64.0860052116790513 33.5856994142773573
 49.8971972075635506 74.2400585895178580 33.5856994142773573
 -21.1811764373082028 53.9319518338402091 33.5856994142773573
 -21.1811764373082028 64.0860052116790513 33.5856994142773573
 60.0512505854023786 33.6238450781625673 33.5856994142773573
 60.0512505854023715 43.7778984560014024 33.5856994142773573
 60.0512505854023857 53.9319518338402162 33.5856994142773573
 -11.0271230594693854 33.6238450781625744 33.5856994142773573
 -11.0271230594693712 43.7778984560014024 33.5856994142773573
 -0.8730696816305656  3.1616849446460935 33.5856994142773573
 -0.8730696816305690 13.3157383224849220 33.5856994142773573
 -0.8730696816305521 23.4697917003237535 33.5856994142773573
 -11.6454790853326688 52.2570312827903649 33.7772002240411240
 -11.6454790853326653 62.4110846606291929 33.7772002240411240
 -11.6454790853326671 72.5651380384680209 33.7772002240411240
 -1.4914257074938480 31.9489245271127267 33.7772002240411240
 -1.4914257074938426 42.1029779049515440 33.7772002240411240
 -1.4914257074938462 52.2570312827903862 33.7772002240411240
 -1.4914257074938462 62.4110846606291858 33.7772002240411240
 -1.4914257074938426 72.5651380384680209 33.7772002240411240
 -21.7995324631714951 72.5651380384680067 33.7772002240411240
  8.6626276703449712 11.6408177714350742 33.7772002240411240
  8.6626276703449712 21.7948711492738987 33.7772002240411240
  8.6626276703449694 31.9489245271127231 33.7772002240411240
  8.6626276703449765 42.1029779049515440 33.7772002240411240
  8.6626276703449712 52.2570312827903862 33.7772002240411240
  8.6626276703449818 62.4110846606292000 33.7772002240411240
  8.6626276703449712 72.5651380384680209 33.7772002240411240
  8.6626276703449818 82.7191914163068560 33.7772002240411240
 18.8166810481837992 11.6408177714350742 33.7772002240411240
 18.8166810481837956 21.7948711492739022 33.7772002240411240
 18.8166810481837956 31.9489245271127267 33.7772002240411240
 18.8166810481837956 42.1029779049515440 33.7772002240411240
 18.8166810481837956 52.2570312827903791 33.7772002240411240
 18.8166810481838027 62.4110846606292000 33.7772002240411240
 18.8166810481837992 72.5651380384680351 33.7772002240411240
 18.8166810481838063 82.7191914163068418 33.7772002240411240
 -1.4914257074938533 82.7191914163068276 33.7772002240411240
 28.9707344260226236 21.7948711492739022 33.7772002240411240
 28.9707344260226307 31.9489245271127302 33.7772002240411240
 28.9707344260226165 42.1029779049515440 33.7772002240411240
 28.9707344260226201 52.2570312827903933 33.7772002240411240
 28.9707344260226272 62.4110846606291929 33.7772002240411240
 28.9707344260226201 72.5651380384680351 33.7772002240411240
 28.9707344260226201 82.7191914163068560 33.7772002240411240
 28.9707344260226236 92.8732447941456911 33.7772002240411240
 39.1247878038614303 21.7948711492738951 33.7772002240411240
 39.1247878038614374 31.9489245271127302 33.7772002240411240
 39.1247878038614445 42.1029779049515440 33.7772002240411240
 39.1247878038614445 52.2570312827903649 33.7772002240411240
 39.1247878038614374 62.4110846606291858 33.7772002240411240
 39.1247878038614445 72.5651380384680067 33.7772002240411240
 39.1247878038614374 82.7191914163068418 33.7772002240411240
 39.1247878038614374 92.8732447941456911 33.7772002240411240
 49.2788411817002583 21.7948711492739022 33.7772002240411240
 49.2788411817002583 31.9489245271127302 33.7772002240411240
 49.2788411817002796 42.1029779049515440 33.7772002240411240
 49.2788411817002583 52.2570312827903791 33.7772002240411240
 49.2788411817002654 62.4110846606292000 33.7772002240411240
 49.2788411817002583 72.5651380384680067 33.7772002240411240
 -21.7995324631714915 52.2570312827903791 33.7772002240411240
 -21.7995324631714844 62.4110846606292000 33.7772002240411240
 59.4328945595390721 31.9489245271127231 33.7772002240411240
 59.4328945595390792 42.1029779049515440 33.7772002240411240
 59.4328945595390792 52.2570312827903649 33.7772002240411240
 -11.6454790853326706 31.9489245271127267 33.7772002240411240
 -11.6454790853326813 42.1029779049515440 33.7772002240411240
 69.5869479373779001 31.9489245271127125 33.7772002240411240
 -1.4914257074938670 11.6408177714350742 33.7772002240411240
 -1.4914257074938497 21.7948711492738987 33.7772002240411240
 -13.0857546740942077 54.8188879020036950 34.7756669130314293
 -13.0857546740942023 64.9729412798425301 34.7756669130314293
 -13.0857546740942041 75.1269946576813510 34.7756669130314293
 -2.9317012962553815 34.5107811463260390 34.7756669130314293
 -2.9317012962553850 44.6648345241648741 34.7756669130314293
 -2.9317012962553868 54.8188879020037021 34.7756669130314293
 -2.9317012962553868 64.9729412798425159 34.7756669130314293
 -2.9317012962553868 75.1269946576813652 34.7756669130314293
  7.2223520815834368  4.0486210128095665 34.7756669130314293
  7.2223520815834341 14.2026743906483937 34.7756669130314293
  7.2223520815834368 24.3567277684872110 34.7756669130314293
  7.2223520815834377 34.5107811463260390 34.7756669130314293
  7.2223520815834394 44.6648345241648599 34.7756669130314293
  7.2223520815834306 54.8188879020036950 34.7756669130314293
  7.2223520815834483 64.9729412798425301 34.7756669130314293
  7.2223520815834483 75.1269946576813510 34.7756669130314293
  7.2223520815834341 85.2810480355201719 34.7756669130314293
 17.3764054594222586 14.2026743906483901 34.7756669130314293
 17.3764054594222586 24.3567277684872181 34.7756669130314293
 17.3764054594222657 34.5107811463260390 34.7756669130314293
 17.3764054594222621 44.6648345241648599 34.7756669130314293
 17.3764054594222586 54.8188879020036950 34.7756669130314293
 17.3764054594222479 64.9729412798425301 34.7756669130314293
 17.3764054594222479 75.1269946576813510 34.7756669130314293
 17.3764054594222728 85.2810480355201719 34.7756669130314293
 27.5304588372610830 14.2026743906483883 34.7756669130314293
 27.5304588372610866 24.3567277684872181 34.7756669130314293
 27.5304588372610795 34.5107811463260390 34.7756669130314293
 27.5304588372610795 44.6648345241648599 34.7756669130314293
 27.5304588372610723 54.8188879020036950 34.7756669130314293
 27.5304588372610901 64.9729412798425159 34.7756669130314293
 27.5304588372610723 75.1269946576813368 34.7756669130314293
 27.5304588372610652 85.2810480355201719 34.7756669130314293
 27.5304588372610866 95.4351014133589786 34.7756669130314293
 37.6845122150999075 24.3567277684872110 34.7756669130314293
 37.6845122150999146 34.5107811463260390 34.7756669130314293
 37.6845122150999003 44.6648345241648599 34.7756669130314293
 37.6845122150999146 54.8188879020036950 34.7756669130314293
 37.6845122150999003 64.9729412798425159 34.7756669130314293
 37.6845122150999003 75.1269946576813510 34.7756669130314293
 37.6845122150999003 85.2810480355201719 34.7756669130314293
 37.6845122150999003 95.4351014133590070 34.7756669130314293
 47.8385655929387212 24.3567277684872110 34.7756669130314293
 47.8385655929387283 34.5107811463260390 34.7756669130314293
 47.8385655929387426 44.6648345241648599 34.7756669130314293
 47.8385655929387426 54.8188879020036950 34.7756669130314293
 47.8385655929387497 64.9729412798425301 34.7756669130314293
 47.8385655929387497 75.1269946576813226 34.7756669130314293
 -23.2398080519330250 54.8188879020036950 34.7756669130314293
 -23.2398080519330392 64.9729412798425159 34.7756669130314293
 57.9926189707775563 34.5107811463260461 34.7756669130314293
 57.9926189707775421 44.6648345241648599 34.7756669130314293
 57.9926189707775563 54.8188879020036950 34.7756669130314293
 -13.0857546740942077 34.5107811463260461 34.7756669130314293
 -13.0857546740942023 44.6648345241648670 34.7756669130314293
 68.1466723486163630 34.5107811463260248 34.7756669130314293
 -2.9317012962554028 14.2026743906483954 34.7756669130314293
 -2.9317012962553992 24.3567277684872110 34.7756669130314293
 -12.0175743621838222 53.7790240559759667 35.7739266949111183
 -12.0175743621838151 63.9330774338147876 35.7739266949111183
 -12.0175743621838258 74.0871308116536227 35.7739266949111183
 -1.8635209843450014 33.4709173002983178 35.7739266949111183
 -1.8635209843449942 43.6249706781371458 35.7739266949111183
 -1.8635209843450049 53.7790240559759880 35.7739266949111183
 -1.8635209843450014 63.9330774338147947 35.7739266949111183
 -1.8635209843449978 74.0871308116536227 35.7739266949111183
 -22.1716277400226467 74.0871308116536085 35.7739266949111183
  8.2905323934938195 13.1628105446206725 35.7739266949111183
  8.2905323934938213 23.3168639224595040 35.7739266949111183
  8.2905323934938213 33.4709173002983178 35.7739266949111183
  8.2905323934938266 43.6249706781371458 35.7739266949111183
  8.2905323934938195 53.7790240559759880 35.7739266949111183
  8.2905323934938373 63.9330774338148018 35.7739266949111183
  8.2905323934938266 74.0871308116536227 35.7739266949111183
  8.2905323934938160 84.2411841894924578 35.7739266949111183
 18.4445857713326440 13.1628105446206742 35.7739266949111183
 18.4445857713326404 23.3168639224594969 35.7739266949111183
 18.4445857713326333 33.4709173002983249 35.7739266949111183
 18.4445857713326546 43.6249706781371458 35.7739266949111183
 18.4445857713326369 53.7790240559759880 35.7739266949111183
 18.4445857713326333 63.9330774338148018 35.7739266949111183
 18.4445857713326369 74.0871308116536227 35.7739266949111183
 18.4445857713326546 84.2411841894924578 35.7739266949111183
 28.5986391491714613 13.1628105446206689 35.7739266949111183
 28.5986391491714684 23.3168639224594969 35.7739266949111183
 28.5986391491714649 33.4709173002983178 35.7739266949111183
 28.5986391491714826 43.6249706781371458 35.7739266949111183
 28.5986391491714578 53.7790240559759809 35.7739266949111183
 28.5986391491714755 63.9330774338147947 35.7739266949111183
 28.5986391491714542 74.0871308116536227 35.7739266949111183
 28.5986391491714684 84.2411841894924578 35.7739266949111183
 28.5986391491714649 94.3952375673312645 35.7739266949111183
 38.7526925270102822 23.3168639224595005 35.7739266949111183
 38.7526925270102822 33.4709173002983178 35.7739266949111183
 38.7526925270102822 43.6249706781371458 35.7739266949111183
 38.7526925270102964 53.7790240559759667 35.7739266949111183
 38.7526925270102964 63.9330774338147876 35.7739266949111183
 38.7526925270102822 74.0871308116536085 35.7739266949111183
 38.7526925270102822 84.2411841894924578 35.7739266949111183
 38.7526925270102822 94.3952375673312645 35.7739266949111183
 48.9067459048491173 23.3168639224594934 35.7739266949111183
 48.9067459048491102 33.4709173002983178 35.7739266949111183
 48.9067459048491244 43.6249706781371458 35.7739266949111183
 48.9067459048491173 53.7790240559759880 35.7739266949111183
 48.9067459048491102 63.9330774338147947 35.7739266949111183
 48.9067459048491315 74.0871308116536085 35.7739266949111183
 -22.1716277400226467 53.7790240559759880 35.7739266949111183
 -22.1716277400226609 63.9330774338148018 35.7739266949111183
 59.0607992826879382 33.4709173002983320 35.7739266949111183
 59.0607992826879240 43.6249706781371458 35.7739266949111183
 59.0607992826879311 53.7790240559759880 35.7739266949111183
 -12.0175743621838222 33.4709173002983249 35.7739266949111183
 -12.0175743621838169 43.6249706781371458 35.7739266949111183
 69.2148526605267449 33.4709173002983178 35.7739266949111183
 -1.8635209843450227 13.1628105446206813 35.7739266949111183
 -1.8635209843450005 23.3168639224594969 35.7739266949111183
 -13.5309705234157640 51.8979597270911839 35.2638976868488143
 -13.5309705234157605 62.0520131049300119 35.2638976868488143
 -13.5309705234157693 72.2060664827688470 35.2638976868488143
 -3.3769171455769396 31.5898529714135421 35.2638976868488143
 -3.3769171455769431 41.7439063492523701 35.2638976868488143
 -3.3769171455769467 51.8979597270912052 35.2638976868488143
 -3.3769171455769396 62.0520131049300119 35.2638976868488143
 -3.3769171455769467 72.2060664827688470 35.2638976868488143
 -23.6850239012545885 72.2060664827688328 35.2638976868488143
  6.7771362322618760 11.2817462157358914 35.2638976868488143
  6.7771362322618760 21.4357995935747141 35.2638976868488143
  6.7771362322618849 31.5898529714135421 35.2638976868488143
  6.7771362322618796 41.7439063492523701 35.2638976868488143
  6.7771362322618778 51.8979597270912052 35.2638976868488143
  6.7771362322618849 62.0520131049300119 35.2638976868488143
  6.7771362322618778 72.2060664827688470 35.2638976868488143
  6.7771362322618813 82.3601198606076679 35.2638976868488143
 16.9311896101007022 11.2817462157358914 35.2638976868488143
 16.9311896101007058 21.4357995935747212 35.2638976868488143
 16.9311896101007022 31.5898529714135421 35.2638976868488143
 16.9311896101007022 41.7439063492523701 35.2638976868488143
 16.9311896101006951 51.8979597270912052 35.2638976868488143
 16.9311896101007093 62.0520131049300190 35.2638976868488143
 16.9311896101006916 72.2060664827688470 35.2638976868488143
 16.9311896101007022 82.3601198606076679 35.2638976868488143
 -3.3769171455769502 82.3601198606076537 35.2638976868488143
 27.0852429879395267 21.4357995935747141 35.2638976868488143
 27.0852429879395267 31.5898529714135421 35.2638976868488143
 27.0852429879395338 41.7439063492523701 35.2638976868488143
 27.0852429879395160 51.8979597270911910 35.2638976868488143
 27.0852429879395160 62.0520131049300119 35.2638976868488143
 27.0852429879395089 72.2060664827688470 35.2638976868488143
 27.0852429879395267 82.3601198606076679 35.2638976868488143
 27.0852429879395409 92.5141732384464888 35.2638976868488143
 37.2392963657783369 21.4357995935747141 35.2638976868488143
 37.2392963657783369 31.5898529714135421 35.2638976868488143
 37.2392963657783369 41.7439063492523559 35.2638976868488143
 37.2392963657783440 51.8979597270911981 35.2638976868488143
 37.2392963657783440 62.0520131049300119 35.2638976868488143
 37.2392963657783511 72.2060664827688612 35.2638976868488143
 37.2392963657783440 82.3601198606076679 35.2638976868488143
 37.2392963657783511 92.5141732384464888 35.2638976868488143
 47.3933497436171720 21.4357995935747176 35.2638976868488143
 47.3933497436171720 31.5898529714135421 35.2638976868488143
 47.3933497436171649 41.7439063492523630 35.2638976868488143
 47.3933497436171791 51.8979597270912052 35.2638976868488143
 47.3933497436171791 62.0520131049300261 35.2638976868488143
 47.3933497436171720 72.2060664827688470 35.2638976868488143
 47.3933497436171649 82.3601198606076821 35.2638976868488143
 -23.6850239012545991 62.0520131049300190 35.2638976868488143
 57.5474031214559858 31.5898529714135421 35.2638976868488143
 57.5474031214559858 41.7439063492523701 35.2638976868488143
 57.5474031214559858 51.8979597270911910 35.2638976868488143
 -13.5309705234157764 31.5898529714135421 35.2638976868488143
 -13.5309705234157622 41.7439063492523843 35.2638976868488143
 67.7014564992948067 31.5898529714135385 35.2638976868488143
 -3.3769171455769595 11.2817462157358914 35.2638976868488143
 -3.3769171455769431 21.4357995935747212 35.2638976868488143
 -14.2425113472191427 53.1600795443863063 36.1520779364791665
 -14.2425113472191356 63.3141329222251414 36.1520779364791665
 -14.2425113472191356 73.4681863000639623 36.1520779364791665
 -4.0884579693803165 32.8519727887086574 36.1520779364791665
 -4.0884579693803147 43.0060261665474926 36.1520779364791665
 -4.0884579693803147 53.1600795443863134 36.1520779364791665
 -4.0884579693803147 63.3141329222251414 36.1520779364791665
 -4.0884579693803182 73.4681863000639623 36.1520779364791665
 -24.3965647250579671 73.4681863000639339 36.1520779364791665
  6.0655954084585044 12.5438660330310086 36.1520779364791665
  6.0655954084585009 22.6979194108698330 36.1520779364791665
  6.0655954084585098 32.8519727887086574 36.1520779364791665
  6.0655954084585009 43.0060261665474926 36.1520779364791665
  6.0655954084585062 53.1600795443863277 36.1520779364791665
  6.0655954084585026 63.3141329222251343 36.1520779364791665
  6.0655954084585098 73.4681863000639623 36.1520779364791665
  6.0655954084585062 83.6222396779027974 36.1520779364791665
 16.2196487862973271 12.5438660330310121 36.1520779364791665
 16.2196487862973271 22.6979194108698330 36.1520779364791665
 16.2196487862973271 32.8519727887086574 36.1520779364791665
 16.2196487862973200 43.0060261665474854 36.1520779364791665
 16.2196487862973306 53.1600795443863277 36.1520779364791665
 16.2196487862973342 63.3141329222251485 36.1520779364791665
 16.2196487862973342 73.4681863000639623 36.1520779364791665
 16.2196487862973342 83.6222396779028116 36.1520779364791665
 26.3737021641361409 12.5438660330310086 36.1520779364791665
 26.3737021641361551 22.6979194108698366 36.1520779364791665
 26.3737021641361480 32.8519727887086574 36.1520779364791665
 26.3737021641361444 43.0060261665474854 36.1520779364791665
 26.3737021641361551 53.1600795443863205 36.1520779364791665
 26.3737021641361409 63.3141329222251414 36.1520779364791665
 26.3737021641361409 73.4681863000639623 36.1520779364791665
 26.3737021641361409 83.6222396779027832 36.1520779364791665
 26.3737021641361551 93.7762930557416183 36.1520779364791665
 36.5277555419749689 22.6979194108698259 36.1520779364791665
 36.5277555419749760 32.8519727887086646 36.1520779364791665
 36.5277555419749760 43.0060261665474854 36.1520779364791665
 36.5277555419749689 53.1600795443863063 36.1520779364791665
 36.5277555419749689 63.3141329222251414 36.1520779364791665
 36.5277555419749689 73.4681863000639481 36.1520779364791665
 36.5277555419749831 83.6222396779028116 36.1520779364791665
 36.5277555419749902 93.7762930557416183 36.1520779364791665
 46.6818089198137827 22.6979194108698294 36.1520779364791665
 46.6818089198138111 32.8519727887086574 36.1520779364791665
 46.6818089198137898 43.0060261665474926 36.1520779364791665
 46.6818089198137969 53.1600795443863277 36.1520779364791665
 46.6818089198137969 63.3141329222251414 36.1520779364791665
 46.6818089198137898 73.4681863000639481 36.1520779364791665
 46.6818089198137969 83.6222396779027974 36.1520779364791665
 -24.3965647250579742 63.3141329222251557 36.1520779364791665
 56.8358622976526107 32.8519727887086574 36.1520779364791665
 56.8358622976526107 43.0060261665474997 36.1520779364791665
 56.8358622976526107 53.1600795443863063 36.1520779364791665
 56.8358622976526107 63.3141329222251414 36.1520779364791665
 -14.2425113472191498 43.0060261665474783 36.1520779364791665
 66.9899156754914316 32.8519727887086503 36.1520779364791665
 -4.0884579693803502 12.5438660330310068 36.1520779364791665
 -4.0884579693803298 22.6979194108698294 36.1520779364791665
 -14.6005810828149691 52.9990196725956864 34.5036398364846804
 -14.6005810828149656 63.1530730504345144 34.5036398364846804
 -14.6005810828149691 73.3071264282733495 34.5036398364846804
 -4.4465277049761536 32.6909129169180446 34.5036398364846804
 -4.4465277049761482 42.8449662947568655 34.5036398364846804
 -4.4465277049761482 52.9990196725956864 34.5036398364846804
 -4.4465277049761447 63.1530730504345144 34.5036398364846804
 -4.4465277049761447 73.3071264282733495 34.5036398364846804
 -24.7546344606537936 73.3071264282733495 34.5036398364846804
  5.7075256728626718 12.3828061612403957 34.5036398364846804
  5.7075256728626718 22.5368595390792272 34.5036398364846804
  5.7075256728626673 32.6909129169180517 34.5036398364846804
  5.7075256728626691 42.8449662947568655 34.5036398364846804
  5.7075256728626726 52.9990196725956935 34.5036398364846804
  5.7075256728626833 63.1530730504345144 34.5036398364846804
  5.7075256728626798 73.3071264282733495 34.5036398364846804
  5.7075256728626691 83.4611798061121704 34.5036398364846804
 15.8615790507015006 12.3828061612403992 34.5036398364846804
 15.8615790507014918 22.5368595390792237 34.5036398364846804
 15.8615790507014918 32.6909129169180517 34.5036398364846804
 15.8615790507014935 42.8449662947568655 34.5036398364846804
 15.8615790507014900 52.9990196725956935 34.5036398364846804
 15.8615790507015006 63.1530730504345286 34.5036398364846804
 15.8615790507014971 73.3071264282733637 34.5036398364846804
 15.8615790507015078 83.4611798061121846 34.5036398364846804
 26.0156324285403109 12.3828061612403921 34.5036398364846804
 26.0156324285403251 22.5368595390792272 34.5036398364846804
 26.0156324285403180 32.6909129169180517 34.5036398364846804
 26.0156324285403144 42.8449662947568655 34.5036398364846804
 26.0156324285403144 52.9990196725956935 34.5036398364846804
 26.0156324285403322 63.1530730504345215 34.5036398364846804
 26.0156324285403109 73.3071264282733779 34.5036398364846804
 26.0156324285403144 83.4611798061121704 34.5036398364846804
 26.0156324285403180 93.6152331839509912 34.5036398364846804
 36.1696858063791211 22.5368595390792166 34.5036398364846804
 36.1696858063791424 32.6909129169180517 34.5036398364846804
 36.1696858063791566 42.8449662947568584 34.5036398364846804
 36.1696858063791424 52.9990196725956935 34.5036398364846804
 36.1696858063791353 63.1530730504345144 34.5036398364846804
 36.1696858063791353 73.3071264282733353 34.5036398364846804
 36.1696858063791495 83.4611798061121846 34.5036398364846804
 36.1696858063791495 93.6152331839509912 34.5036398364846804
 46.3237391842179562 22.5368595390792237 34.5036398364846804
 46.3237391842179704 32.6909129169180375 34.5036398364846804
 46.3237391842179704 42.8449662947568655 34.5036398364846804
 46.3237391842179562 52.9990196725956864 34.5036398364846804
 46.3237391842179704 63.1530730504345144 34.5036398364846804
 46.3237391842179562 73.3071264282733353 34.5036398364846804
 46.3237391842179704 83.4611798061121704 34.5036398364846804
 -24.7546344606537936 63.1530730504345357 34.5036398364846804
 56.4777925620567842 32.6909129169180446 34.5036398364846804
 56.4777925620567842 42.8449662947568868 34.5036398364846804
 56.4777925620567984 52.9990196725956935 34.5036398364846804
 56.4777925620567771 63.1530730504345286 34.5036398364846804
 -14.6005810828149762 42.8449662947568726 34.5036398364846804
 66.6318459398955980 32.6909129169180304 34.5036398364846804
 -4.4465277049761678 12.3828061612403886 34.5036398364846804
 -4.4465277049761553 22.5368595390792272 34.5036398364846804
 -0.0875349429124033  3.5889326594085507 15.5760389682395832
  6.9152604900798904 10.9418678640504563 15.5760389682395832
 -0.4376747145620197 17.9446632970427515 15.5760389682395832
 -7.7906099192039244 24.9474587300350379 15.5760389682395832
 13.9180559230721812 18.2948030686923602 15.5760389682395832
  6.5651207184302720 25.2975985016846607 15.5760389682395832
 -0.7878144862116283 32.3003939346769471 15.5760389682395832
 -8.1407496908535464 39.3031893676692476 15.5760389682395832
 -15.4936848954954574 46.3059848006615553 15.5760389682395832
 28.2737865607063767 18.6449428403419795 15.5760389682395832
 20.9208513560644782 25.6477382733342694 15.5760389682395832
 13.5679161514225655 32.6505337063265699 15.5760389682395832
  6.2149809467806580 39.6533291393188634 15.5760389682395832
 -1.1379542578612565 46.6561245723111568 15.5760389682395832
 -8.4908894625031550 53.6589200053034432 15.5760389682395832
 -15.8438246671450713 60.6617154382957509 15.5760389682395832
 -23.1967598717869699 67.6645108712880301 15.5760389682395832
 35.2765819936986702 25.9978780449838816 15.5760389682395832
 27.9236467890567681 33.0006734779761786 15.5760389682395832
 20.5707115844148554 40.0034689109684791 15.5760389682395832
 13.2177763797729479 47.0062643439607655 15.5760389682395832
  5.8648411751310405 54.0090597769530589 15.5760389682395832
 -1.4880940295108722 61.0118552099453666 15.5760389682395832
 -8.8410292341527779 68.0146506429376529 15.5760389682395832
 -16.1939644387946871 75.0174460759299393 15.5760389682395832
 49.6323126313328800 26.3480178166334937 15.5760389682395832
 42.2793774266909708 33.3508132496257943 15.5760389682395832
 34.9264422220490545 40.3536086826180878 15.5760389682395832
 27.5735070174071488 47.3564041156103741 15.5760389682395832
 20.2205718127652467 54.3591995486026747 15.5760389682395832
 12.8676366081233304 61.3619949815949681 15.5760389682395832
  5.5147014034814212 68.3647904145872758 15.5760389682395832
 -1.8382338011604880 75.3675858475795621 15.5760389682395832
 21.2709911277140726 11.2920076357000756 15.5760389682395832
 56.6351080643251592 33.7009530212754100 15.5760389682395832
 49.2821728596832500 40.7037484542676964 15.5760389682395832
 41.9292376550413479 47.7065438872599969 15.5760389682395832
 34.5763024503994387 54.7093393202522833 15.5760389682395832
 27.2233672457575473 61.7121347532445910 15.5760389682395832
 19.8704320411156274 68.7149301862368844 15.5760389682395832
 12.5174968364737254 75.7177256192291566 15.5760389682395832
  5.1645616318318019 82.7205210522214713 15.5760389682395832
 63.6379034973174598 41.0538882259173192 15.5760389682395832
 56.2849682926755293 48.0566836589095985 15.5760389682395832
 48.9320330880336485 55.0594790919018919 15.5760389682395832
 41.5790978833917393 62.0622745248941996 15.5760389682395832
 34.2261626787498301 69.0650699578864931 15.5760389682395832
 26.8732274741079316 76.0678653908787794 15.5760389682395832
 19.5202922694660082 83.0706608238710800 15.5760389682395832
 42.6295171983405581 18.9950826119916023 15.5760389682395832
 55.9348285210259277 62.4124142965438011 15.5760389682395832
 48.5818933163839972 69.4152097295361017 15.5760389682395832
 41.2289581117421164 76.4180051625283880 15.5760389682395832
 33.8760229071001930 83.4208005955206744 15.5760389682395832
 26.5230877024582909 90.4235960285129750 15.5760389682395832
 48.2317535447343957 83.7709403671702830 15.5760389682395832
 40.8788183400925078 90.7737358001625836 15.5760389682395832
 33.5258831354505702 97.7765312331548699 15.5760389682395832
 -0.2626048287372100 10.7667979782256502 15.5760389682395832
  6.7401906042550817 18.1197331828675559 15.5760389682395832
 -0.6127446003868240 25.1225286158598458 15.5760389682395832
 -7.9656798050287376 32.1253240488521428 15.5760389682395832
 13.7429860372473733 25.4726683875094650 15.5760389682395832
  6.3900508326054695 32.4754638205017514 15.5760389682395832
 -0.9628843720364486 39.4782592534940591 15.5760389682395832
 -8.3158195766783525 46.4810546864863454 15.5760389682395832
 -15.6687547813202599 53.4838501194786389 15.5760389682395832
 28.0987166748815689 25.8228081591590737 15.5760389682395832
 20.7457814702396632 32.8256035921513742 15.5760389682395832
 13.3928462655977576 39.8283990251436677 15.5760389682395832
  6.0399110609558520 46.8311944581359612 15.5760389682395832
 -1.3130241436860608 53.8339898911282546 15.5760389682395832
 -8.6659593483279647 60.8367853241205410 15.5760389682395832
 -16.0188945529698756 67.8395807571128415 15.5760389682395832
  7.0903303759046921  3.7640025452333519 15.5760389682395832
 35.1015121078738588 33.1757433638009758 15.5760389682395832
 27.7485769032319425 40.1785387967932692 15.5760389682395832
 20.3956416985900546 47.1813342297855627 15.5760389682395832
 13.0427064939481383 54.1841296627778632 15.5760389682395832
  5.6897712893062256 61.1869250957701496 15.5760389682395832
 -1.6631639153356694 68.1897205287624502 15.5760389682395832
 -9.0160991199775822 75.1925159617547365 15.5760389682395832
 14.0931258088969837 11.1169377498752553 15.5760389682395832
 49.4572427455080685 33.5258831354505986 15.5760389682395832
 42.1043075408661522 40.5286785684428921 15.5760389682395832
 34.7513723362242501 47.5314740014351855 15.5760389682395832
 27.3984371315823516 54.5342694344274932 15.5760389682395832
 20.0455019269404460 61.5370648674197724 15.5760389682395832
 12.6925667222985261 68.5398603004120730 15.5760389682395832
  5.3396315176566240 75.5426557334043736 15.5760389682395832
 -2.0133036869852781 82.5454511663966457 15.5760389682395832
 21.0959212418892754 18.4698729545171823 15.5760389682395832
 56.4600381785003478 40.8788183400925007 15.5760389682395832
 49.1071029738584315 47.8816137730847942 15.5760389682395832
 41.7541677692165436 54.8844092060770805 15.5760389682395832
 34.4012325645746273 61.8872046390693811 15.5760389682395832
 27.0482973599327181 68.8900000720616674 15.5760389682395832
 19.6953621552908196 75.8927955050539822 15.5760389682395832
 12.3424269506489104 82.8955909380462685 15.5760389682395832
 35.4516518795234674 18.8200127261667838 15.5760389682395832
 -7.6155400333791166 17.7695934112179401 15.5760389682395832
 56.1098984068507320 55.2345489777267034 15.5760389682395832
 48.7569632022088371 62.2373444107189968 15.5760389682395832
 41.4040279975669421 69.2401398437112903 15.5760389682395832
 34.0510927929250187 76.2429352767035908 15.5760389682395832
 26.6981575882831237 83.2457307096958914 15.5760389682395832
 19.3452223836412038 90.2485261426881777 15.5760389682395832
 42.4544473125157538 26.1729479308087001 15.5760389682395832
 -15.3186150096706246 39.1281194818444362 15.5760389682395832
 48.4068234305592284 76.5930750483531995 15.5760389682395832
 41.0538882259173121 83.5958704813455142 15.5760389682395832
 33.7009530212753958 90.5986659143378006 15.5760389682395832
 56.8101779501499564 26.5230877024583158 15.5760389682395832
 -23.0216899859621869 60.4866455524709110 15.5760389682395832
 40.7037484542676680 97.9516011189796529 15.5760389682395832
 63.8129733831422357 33.8760229071002215 15.5760389682395832
 -0.0875349429124033  3.5889326594085507 11.9860389682395834
  6.9152604900798904 10.9418678640504563 11.9860389682395834
 -0.4376747145620197 17.9446632970427515 11.9860389682395834
 -7.7906099192039244 24.9474587300350379 11.9860389682395834
 13.9180559230721812 18.2948030686923602 11.9860389682395834
  6.5651207184302720 25.2975985016846607 11.9860389682395834
 -0.7878144862116283 32.3003939346769471 11.9860389682395834
 -8.1407496908535464 39.3031893676692476 11.9860389682395834
 -15.4936848954954574 46.3059848006615553 11.9860389682395834
 28.2737865607063767 18.6449428403419795 11.9860389682395834
 20.9208513560644782 25.6477382733342694 11.9860389682395834
 13.5679161514225655 32.6505337063265699 11.9860389682395834
  6.2149809467806580 39.6533291393188634 11.9860389682395834
 -1.1379542578612565 46.6561245723111568 11.9860389682395834
 -8.4908894625031550 53.6589200053034432 11.9860389682395834
 -15.8438246671450713 60.6617154382957509 11.9860389682395834
 -23.1967598717869699 67.6645108712880301 11.9860389682395834
 35.2765819936986702 25.9978780449838816 11.9860389682395834
 27.9236467890567681 33.0006734779761786 11.9860389682395834
 20.5707115844148554 40.0034689109684791 11.9860389682395834
 13.2177763797729479 47.0062643439607655 11.9860389682395834
  5.8648411751310405 54.0090597769530589 11.9860389682395834
 -1.4880940295108722 61.0118552099453666 11.9860389682395834
 -8.8410292341527779 68.0146506429376529 11.9860389682395834
 -16.1939644387946871 75.0174460759299393 11.9860389682395834
 49.6323126313328800 26.3480178166334937 11.9860389682395834
 42.2793774266909708 33.3508132496257943 11.9860389682395834
 34.9264422220490545 40.3536086826180878 11.9860389682395834
 27.5735070174071488 47.3564041156103741 11.9860389682395834
 20.2205718127652467 54.3591995486026747 11.9860389682395834
 12.8676366081233304 61.3619949815949681 11.9860389682395834
  5.5147014034814212 68.3647904145872758 11.9860389682395834
 -1.8382338011604880 75.3675858475795621 11.9860389682395834
 21.2709911277140726 11.2920076357000756 11.9860389682395834
 56.6351080643251592 33.7009530212754100 11.9860389682395834
 49.2821728596832500 40.7037484542676964 11.9860389682395834
 41.9292376550413479 47.7065438872599969 11.9860389682395834
 34.5763024503994387 54.7093393202522833 11.9860389682395834
 27.2233672457575473 61.7121347532445910 11.9860389682395834
 19.8704320411156274 68.7149301862368844 11.9860389682395834
 12.5174968364737254 75.7177256192291566 11.9860389682395834
  5.1645616318318019 82.7205210522214713 11.9860389682395834
 63.6379034973174598 41.0538882259173192 11.9860389682395834
 56.2849682926755293 48.0566836589095985 11.9860389682395834
 48.9320330880336485 55.0594790919018919 11.9860389682395834
 41.5790978833917393 62.0622745248941996 11.9860389682395834
 34.2261626787498301 69.0650699578864931 11.9860389682395834
 26.8732274741079316 76.0678653908787794 11.9860389682395834
 19.5202922694660082 83.0706608238710800 11.9860389682395834
 42.6295171983405581 18.9950826119916023 11.9860389682395834
 55.9348285210259277 62.4124142965438011 11.9860389682395834
 48.5818933163839972 69.4152097295361017 11.9860389682395834
 41.2289581117421164 76.4180051625283880 11.9860389682395834
 33.8760229071001930 83.4208005955206744 11.9860389682395834
 26.5230877024582909 90.4235960285129750 11.9860389682395834
 48.2317535447343957 83.7709403671702830 11.9860389682395834
 40.8788183400925078 90.7737358001625836 11.9860389682395834
 33.5258831354505702 97.7765312331548699 11.9860389682395834
 -0.2626048287372100 10.7667979782256502 11.9860389682395834
  6.7401906042550817 18.1197331828675559 11.9860389682395834
 -0.6127446003868240 25.1225286158598458 11.9860389682395834
 -7.9656798050287376 32.1253240488521428 11.9860389682395834
 13.7429860372473733 25.4726683875094650 11.9860389682395834
  6.3900508326054695 32.4754638205017514 11.9860389682395834
 -0.9628843720364486 39.4782592534940591 11.9860389682395834
 -8.3158195766783525 46.4810546864863454 11.9860389682395834
 -15.6687547813202599 53.4838501194786389 11.9860389682395834
 28.0987166748815689 25.8228081591590737 11.9860389682395834
 20.7457814702396632 32.8256035921513742 11.9860389682395834
 13.3928462655977576 39.8283990251436677 11.9860389682395834
  6.0399110609558520 46.8311944581359612 11.9860389682395834
 -1.3130241436860608 53.8339898911282546 11.9860389682395834
 -8.6659593483279647 60.8367853241205410 11.9860389682395834
 -16.0188945529698756 67.8395807571128415 11.9860389682395834
  7.0903303759046921  3.7640025452333519 11.9860389682395834
 35.1015121078738588 33.1757433638009758 11.9860389682395834
 27.7485769032319425 40.1785387967932692 11.9860389682395834
 20.3956416985900546 47.1813342297855627 11.9860389682395834
 13.0427064939481383 54.1841296627778632 11.9860389682395834
  5.6897712893062256 61.1869250957701496 11.9860389682395834
 -1.6631639153356694 68.1897205287624502 11.9860389682395834
 -9.0160991199775822 75.1925159617547365 11.9860389682395834
 14.0931258088969837 11.1169377498752553 11.9860389682395834
 49.4572427455080685 33.5258831354505986 11.9860389682395834
 42.1043075408661522 40.5286785684428921 11.9860389682395834
 34.7513723362242501 47.5314740014351855 11.9860389682395834
 27.3984371315823516 54.5342694344274932 11.9860389682395834
 20.0455019269404460 61.5370648674197724 11.9860389682395834
 12.6925667222985261 68.5398603004120730 11.9860389682395834
  5.3396315176566240 75.5426557334043736 11.9860389682395834
 -2.0133036869852781 82.5454511663966457 11.9860389682395834
 21.0959212418892754 18.4698729545171823 11.9860389682395834
 56.4600381785003478 40.8788183400925007 11.9860389682395834
 49.1071029738584315 47.8816137730847942 11.9860389682395834
 41.7541677692165436 54.8844092060770805 11.9860389682395834
 34.4012325645746273 61.8872046390693811 11.9860389682395834
 27.0482973599327181 68.8900000720616674 11.9860389682395834
 19.6953621552908196 75.8927955050539822 11.9860389682395834
 12.3424269506489104 82.8955909380462685 11.9860389682395834
 35.4516518795234674 18.8200127261667838 11.9860389682395834
 -7.6155400333791166 17.7695934112179401 11.9860389682395834
 56.1098984068507320 55.2345489777267034 11.9860389682395834
 48.7569632022088371 62.2373444107189968 11.9860389682395834
 41.4040279975669421 69.2401398437112903 11.9860389682395834
 34.0510927929250187 76.2429352767035908 11.9860389682395834
 26.6981575882831237 83.2457307096958914 11.9860389682395834
 19.3452223836412038 90.2485261426881777 11.9860389682395834
 42.4544473125157538 26.1729479308087001 11.9860389682395834
 -15.3186150096706246 39.1281194818444362 11.9860389682395834
 48.4068234305592284 76.5930750483531995 11.9860389682395834
 41.0538882259173121 83.5958704813455142 11.9860389682395834
 33.7009530212753958 90.5986659143378006 11.9860389682395834
 56.8101779501499564 26.5230877024583158 11.9860389682395834
 -23.0216899859621869 60.4866455524709110 11.9860389682395834
 40.7037484542676680 97.9516011189796529 11.9860389682395834
 63.8129733831422357 33.8760229071002215 11.9860389682395834
  0.0000000000000000  0.0000000000000000 15.5760389682395832
  7.0027954329922935  7.3529352046419074 15.5760389682395832
 -0.3501397716496131 14.3557306376342027 15.5760389682395832
 -7.7030749762915223 21.3585260706264890 15.5760389682395832
 14.0055908659845869 14.7058704092838148 15.5760389682395832
  6.6526556613426768 21.7086658422761118 15.5760389682395832
 -0.7002795432992261 28.7114612752684053 15.5760389682395832
 -8.0532147479411407 35.7142567082606917 15.5760389682395832
 -15.4061499525830445 42.7170521412529780 15.5760389682395832
 28.3613215036187825 15.0560101809334252 15.5760389682395832
 21.0083862989768768 22.0588056139257240 15.5760389682395832
 13.6554510943349712 29.0616010469180210 15.5760389682395832
  6.3025158896930566 36.0643964799103145 15.5760389682395832
 -1.0504193149488472 43.0671919129026008 15.5760389682395832
 -8.4033545195907546 50.0699873458949014 15.5760389682395832
 -15.7562897242326656 57.0727827788871878 15.5760389682395832
 -23.1092249288745712 64.0755782118794741 15.5760389682395832
 35.3641169366110688 22.4089453855753291 15.5760389682395832
 28.0111817319691738 29.4117408185676297 15.5760389682395832
 20.6582465273272575 36.4145362515599231 15.5760389682395832
 13.3053113226853537 43.4173316845522237 15.5760389682395832
  5.9523761180434391 50.4201271175445171 15.5760389682395832
 -1.4005590865984523 57.4229225505368106 15.5760389682395832
 -8.7534942912403615 64.4257179835290827 15.5760389682395832
 -16.1064294958822813 71.4285134165213833 15.5760389682395832
 49.7198475742452786 22.7590851572249413 15.5760389682395832
 42.3669123696033694 29.7618805902172454 15.5760389682395832
 35.0139771649614531 36.7646760232095318 15.5760389682395832
 27.6610419603195652 43.7674714562018323 15.5760389682395832
 20.3081067556776453 50.7702668891941187 15.5760389682395832
 12.9551715510357326 57.7730623221864263 15.5760389682395832
  5.6022363463938269 64.7758577551787198 15.5760389682395832
 -1.7506988582480787 71.7786531881710061 15.5760389682395832
 -9.1036340628899808 78.7814486211632783 15.5760389682395832
 56.7226430072375649 30.1120203618668505 15.5760389682395832
 49.3697078025956628 37.1148157948591546 15.5760389682395832
 42.0167725979537536 44.1176112278514481 15.5760389682395832
 34.6638373933118373 51.1204066608437415 15.5760389682395832
 27.3109021886699423 58.1232020938360421 15.5760389682395832
 19.9579669840280260 65.1259975268283284 15.5760389682395832
 12.6050317793861133 72.1287929598206290 15.5760389682395832
  5.2520965747442183 79.1315883928128869 15.5760389682395832
 63.7254384402298513 37.4649555665087632 15.5760389682395832
 56.3725032355879279 44.4677509995010496 15.5760389682395832
 49.0195680309460400 51.4705464324933502 15.5760389682395832
 41.6666328263041450 58.4733418654856365 15.5760389682395832
 34.3136976216622216 65.4761372984779513 15.5760389682395832
 26.9607624170203266 72.4789327314702234 15.5760389682395832
 19.6078272123784139 79.4817281644625382 15.5760389682395832
 12.2548920077365082 86.4845235974548245 15.5760389682395832
 56.0223634639383476 58.8234816371352593 15.5760389682395832
 48.6694282592964385 65.8262770701275599 15.5760389682395832
 41.3164930546545150 72.8290725031198463 15.5760389682395832
 33.9635578500126059 79.8318679361121326 15.5760389682395832
 26.6106226453707073 86.8346633691044474 15.5760389682395832
 48.3192884876468085 80.1820077077617412 15.5760389682395832
 40.9663532830049135 87.1848031407540418 15.5760389682395832
 33.6134180783629972 94.1875985737463282 15.5760389682395832
  3.5013977164961467  3.6764676023209537 15.5760389682395832
 10.5041931494884384 11.0294028069628620 15.5760389682395832
  3.1512579448465292 18.0321982399551501 15.5760389682395832
 -4.2016772597953773 25.0349936729474507 15.5760389682395832
 17.5069885824807265 18.3823380116047659 15.5760389682395832
 10.1540533778388191 25.3851334445970558 15.5760389682395832
  2.8011181731969135 32.3879288775893599 15.5760389682395832
 -4.5518170314449904 39.3907243105816391 15.5760389682395832
 -11.9047522360868996 46.3935197435739468 15.5760389682395832
 31.8627192201149256 18.7324777832543816 15.5760389682395832
 24.5097840154730200 25.7352732162466751 15.5760389682395832
 17.1568488108311108 32.7380686492389756 15.5760389682395832
  9.8039136061892069 39.7408640822312691 15.5760389682395832
  2.4509784015472995 46.7436595152235554 15.5760389682395832
 -4.9019568030946044 53.7464549482158418 15.5760389682395832
 -12.2548920077365189 60.7492503812081424 15.5760389682395832
 -19.6078272123784174 67.7520458142004287 15.5760389682395832
 38.8655146531072191 26.0854129878962873 15.5760389682395832
 31.5125794484653099 33.0882084208885843 15.5760389682395832
 24.1596442438234043 40.0910038538808777 15.5760389682395832
 16.8067090391814986 47.0937992868731641 15.5760389682395832
  9.4537738345395894 54.0965947198654646 15.5760389682395832
  2.1008386298976909 61.0993901528577510 15.5760389682395832
 -5.2520965747442219 68.1021855858500373 15.5760389682395832
 -12.6050317793861275 75.1049810188423521 15.5760389682395832
 53.2212452907414004 26.4355527595458923 15.5760389682395832
 45.8683100860995054 33.4383481925381858 15.5760389682395832
 38.5153748814576034 40.4411436255304793 15.5760389682395832
 31.1624396768157013 47.4439390585228011 15.5760389682395832
 23.8095044721738063 54.4467344915150733 15.5760389682395832
 16.4565692675318651 61.4495299245073738 15.5760389682395832
  9.1036340628899772 68.4523253574996460 15.5760389682395832
  1.7506988582480716 75.4551207904919465 15.5760389682395832
 24.8599237871226215 11.3795425786124831 15.5760389682395832
 60.2240407237337152 33.7884879641878086 15.5760389682395832
 52.8711055190917989 40.7912833971800950 15.5760389682395832
 45.5181703144499039 47.7940788301723956 15.5760389682395832
 38.1652351098079947 54.7968742631646961 15.5760389682395832
 30.8122999051660784 61.7996696961569967 15.5760389682395832
 23.4593647005241728 68.8024651291492830 15.5760389682395832
 16.1064294958822671 75.8052605621415836 15.5760389682395832
  8.7534942912403650 82.8080559951338557 15.5760389682395832
 -3.8515374881457465 10.6792630353132516 15.5760389682395832
 59.8739009520840852 48.1442186018220113 15.5760389682395832
 52.5209657474422045 55.1470140348143048 15.5760389682395832
 45.1680305428002953 62.1498094678066053 15.5760389682395832
 37.8150953381583861 69.1526049007988917 15.5760389682395832
 30.4621601335164733 76.1554003337911922 15.5760389682395832
 23.1092249288745712 83.1581957667834928 15.5760389682395832
 15.7562897242326656 90.1609911997757791 15.5760389682395832
 -11.5546124644372750 32.0377891059397442 15.5760389682395832
 52.1708259757925816 69.5027446724485003 15.5760389682395832
 44.8178907711506582 76.5055401054408151 15.5760389682395832
 37.4649555665087632 83.5083355384330872 15.5760389682395832
 30.1120203618668434 90.5111309714253878 15.5760389682395832
 -19.2576874407288159 53.3963151765662261 15.5760389682395832
 44.4677509995010496 90.8612707430749538 15.5760389682395832
 37.1148157948591404 97.8640661760672828 15.5760389682395832
 67.4019060425508343 33.9635578500126130 15.5760389682395832
  3.3263278306713384 10.8543329211380524 15.5760389682395832
 -4.0266073739705686 17.8571283541303458 15.5760389682395832
 59.6988310662592880 55.3220839206391162 15.5760389682395832
 10.3291232636636288 18.2072681257799616 15.5760389682395832
  2.9761880590217249 25.2100635587722550 15.5760389682395832
 -4.3767471456201807 32.2128589917645414 15.5760389682395832
 -11.7296823502620882 39.2156544247568419 15.5760389682395832
 -19.0826175549039974 46.2184498577491283 15.5760389682395832
 24.6848539012978279 18.5574078974295773 15.5760389682395832
 17.3319186966559258 25.5602033304218708 15.5760389682395832
  9.9789834920140130 32.5629987634141642 15.5760389682395832
  2.6260482873721109 39.5657941964064648 15.5760389682395832
 -4.7268869172698054 46.5685896293987440 15.5760389682395832
 -12.0798221219117021 53.5713850623910233 15.5760389682395832
 -19.4327573265536202 60.5741804953833380 15.5760389682395832
 -26.7856925311955187 67.5769759283756173 15.5760389682395832
 31.6876493342901213 25.9103431020714794 15.5760389682395832
 24.3347141296482192 32.9131385350637800 15.5760389682395832
 16.9817789250063029 39.9159339680560663 15.5760389682395832
  9.6288437203644008 46.9187294010483740 15.5760389682395832
  2.2759085157224810 53.9215248340406603 15.5760389682395832
 -5.0770266889194140 60.9243202670329396 15.5760389682395832
 -12.4299618935613232 67.9271157000252543 15.5760389682395832
 -19.7828970982032253 74.9299111330175265 15.5760389682395832
 46.0433799719243240 26.2604828737210916 15.5760389682395832
 38.6904447672824148 33.2632783067133886 15.5760389682395832
 31.3375095626405127 40.2660737397056749 15.5760389682395832
 23.9845743579986106 47.2688691726979755 15.5760389682395832
 16.6316391533567014 54.2716646056902619 15.5760389682395832
  9.2787039487147887 61.2744600386825695 15.5760389682395832
  1.9257687440728724 68.2772554716748488 15.5760389682395832
 -5.4271664605690297 75.2800509046671493 15.5760389682395832
 17.6820584683055273 11.2044726927876646 15.5760389682395832
 53.0461754049166103 33.6134180783629972 15.5760389682395832
 45.6932402002747082 40.6162135113552978 15.5760389682395832
 38.3403049956327990 47.6190089443475841 15.5760389682395832
 30.9873697909908827 54.6218043773398705 15.5760389682395832
 23.6344345863489806 61.6245998103321782 15.5760389682395832
 16.2814993817070714 68.6273952433244716 15.5760389682395832
  8.9285641770651587 75.6301906763167864 15.5760389682395832
  1.5756289724232566 82.6329861093090443 15.5760389682395832
 60.0489708379089038 40.9663532830049064 15.5760389682395832
 52.6960356332669875 47.9691487159971999 15.5760389682395832
 45.3431004286250925 54.9719441489894933 15.5760389682395832
 37.9901652239831833 61.9747395819817868 15.5760389682395832
 30.6372300193412883 68.9775350149740802 15.5760389682395832
 23.2842948146993720 75.9803304479663950 15.5760389682395832
 15.9313596100574593 82.9831258809586814 15.5760389682395832
 39.0405845389320092 18.9075476690792073 15.5760389682395832
 52.3458958616174002 62.3248793536314096 15.5760389682395832
 44.9929606569754839 69.3276747866237031 15.5760389682395832
 37.6400254523335605 76.3304702196159894 15.5760389682395832
 30.2870902476916655 83.3332656526082758 15.5760389682395832
 22.9341550430497598 90.3360610856005906 15.5760389682395832
 44.6428208853258397 83.6834054242578702 15.5760389682395832
 37.2898856806839376 90.6862008572501850 15.5760389682395832
 60.3991106095585053 26.6106226453707215 15.5760389682395832
 -0.1750698858248065  7.1778653188171013 15.5760389682395832
  6.8277255471674865 14.5308005234590087 15.5760389682395832
 -0.5252096574744201 21.5335959564513004 15.5760389682395832
 -7.8781448621163301 28.5363913894435974 15.5760389682395832
 13.8305209801597808 21.8837357281009126 15.5760389682395832
  6.4775857755178663 28.8865311610932132 15.5760389682395832
 -0.8753494291240393 35.8893265940855031 15.5760389682395832
 -8.2282846337659432 42.8921220270777894 15.5760389682395832
 -15.5812198384078489 49.8949174600700758 15.5760389682395832
 28.1862516177939639 22.2338754997505248 15.5760389682395832
 20.8333164131520725 29.2366709327428183 15.5760389682395832
 13.4803812085101633 36.2394663657351117 15.5760389682395832
  6.1274460038682541 43.2422617987274123 15.5760389682395832
 -1.2254892007736657 50.2450572317197128 15.5760389682395832
 -8.5784244054155536 57.2478526647119850 15.5760389682395832
 -15.9313596100574717 64.2506480977042997 15.5760389682395832
 -23.2842948146993791 71.2534435306965861 15.5760389682395832
 35.1890470507862645 29.5868107043924233 15.5760389682395832
 27.8361118461443624 36.5896061373847203 15.5760389682395832
 20.4831766415024568 43.5924015703770209 15.5760389682395832
 13.1302414368605440 50.5951970033693215 15.5760389682395832
  5.7773062322186348 57.5979924363616078 15.5760389682395832
 -1.5756289724232566 64.6007878693538942 15.5760389682395832
 -8.9285641770651729 71.6035833023461947 15.5760389682395832
 14.1806607518093806  7.5280050904667197 15.5760389682395832
 49.5447776884204600 29.9369504760420426 15.5760389682395832
 42.1918424837785651 36.9397459090343361 15.5760389682395832
 34.8389072791366559 43.9425413420266295 15.5760389682395832
 27.4859720744947467 50.9453367750189301 15.5760389682395832
 20.1330368698528517 57.9481322080112236 15.5760389682395832
 12.7801016652109212 64.9509276410035170 15.5760389682395832
  5.4271664605690226 71.9537230739958034 15.5760389682395832
 -1.9257687440728901 78.9565185069881181 15.5760389682395832
 21.1834561848016705 14.8809402951086263 15.5760389682395832
 56.5475731214127535 37.2898856806839589 15.5760389682395832
 49.1946379167708514 44.2926811136762524 15.5760389682395832
 41.8417027121289564 51.2954765466685387 15.5760389682395832
 34.4887675074870330 58.2982719796608251 15.5760389682395832
 27.1358323028451309 65.3010674126531399 15.5760389682395832
 19.7828970982032359 72.3038628456454262 15.5760389682395832
 12.4299618935613161 79.3066582786377268 15.5760389682395832
 35.5391868224358660 15.2310800667582296 15.5760389682395832
 63.5503685544050541 44.6428208853258752 15.5760389682395832
 56.1974333497631378 51.6456163183181474 15.5760389682395832
 48.8444981451212499 58.6484117513104621 15.5760389682395832
 41.4915629404793407 65.6512071843027485 15.5760389682395832
 34.1386277358374315 72.6540026172950348 15.5760389682395832
 26.7856925311955152 79.6567980502873354 15.5760389682395832
 19.4327573265536095 86.6595934832796360 15.5760389682395832
 42.5419822554281737 22.5840152714001654 15.5760389682395832
 -15.2310800667582367 35.5391868224358873 15.5760389682395832
 48.4943583734716412 73.0041423889446577 15.5760389682395832
 41.1414231688297107 80.0069378219369582 15.5760389682395832
 33.7884879641878086 87.0097332549292446 15.5760389682395832
 26.4355527595458959 94.0125286879215309 15.5760389682395832
 -22.9341550430497740 56.8977128930623621 15.5760389682395832
 40.7912833971800950 94.3626684595711396 15.5760389682395832
 63.9005083260546556 30.2870902476916655 15.5760389682395832
 -0.0875349429124033  3.5889326594085507 19.1660389682395831
  6.9152604900798904 10.9418678640504563 19.1660389682395831
 -0.4376747145620197 17.9446632970427515 19.1660389682395831
 -7.7906099192039244 24.9474587300350379 19.1660389682395831
 13.9180559230721812 18.2948030686923602 19.1660389682395831
  6.5651207184302720 25.2975985016846607 19.1660389682395831
 -0.7878144862116283 32.3003939346769471 19.1660389682395831
 -8.1407496908535464 39.3031893676692476 19.1660389682395831
 -15.4936848954954574 46.3059848006615553 19.1660389682395831
 28.2737865607063767 18.6449428403419795 19.1660389682395831
 20.9208513560644782 25.6477382733342694 19.1660389682395831
 13.5679161514225655 32.6505337063265699 19.1660389682395831
  6.2149809467806580 39.6533291393188634 19.1660389682395831
 -1.1379542578612565 46.6561245723111568 19.1660389682395831
 -8.4908894625031550 53.6589200053034432 19.1660389682395831
 -15.8438246671450713 60.6617154382957509 19.1660389682395831
 -23.1967598717869699 67.6645108712880301 19.1660389682395831
 35.2765819936986702 25.9978780449838816 19.1660389682395831
 27.9236467890567681 33.0006734779761786 19.1660389682395831
 20.5707115844148554 40.0034689109684791 19.1660389682395831
 13.2177763797729479 47.0062643439607655 19.1660389682395831
  5.8648411751310405 54.0090597769530589 19.1660389682395831
 -1.4880940295108722 61.0118552099453666 19.1660389682395831
 -8.8410292341527779 68.0146506429376529 19.1660389682395831
 -16.1939644387946871 75.0174460759299393 19.1660389682395831
 49.6323126313328800 26.3480178166334937 19.1660389682395831
 42.2793774266909708 33.3508132496257943 19.1660389682395831
 34.9264422220490545 40.3536086826180878 19.1660389682395831
 27.5735070174071488 47.3564041156103741 19.1660389682395831
 20.2205718127652467 54.3591995486026747 19.1660389682395831
 12.8676366081233304 61.3619949815949681 19.1660389682395831
  5.5147014034814212 68.3647904145872758 19.1660389682395831
 -1.8382338011604880 75.3675858475795621 19.1660389682395831
 21.2709911277140726 11.2920076357000756 19.1660389682395831
 56.6351080643251592 33.7009530212754100 19.1660389682395831
 49.2821728596832500 40.7037484542676964 19.1660389682395831
 41.9292376550413479 47.7065438872599969 19.1660389682395831
 34.5763024503994387 54.7093393202522833 19.1660389682395831
 27.2233672457575473 61.7121347532445910 19.1660389682395831
 19.8704320411156274 68.7149301862368844 19.1660389682395831
 12.5174968364737254 75.7177256192291566 19.1660389682395831
  5.1645616318318019 82.7205210522214713 19.1660389682395831
 63.6379034973174598 41.0538882259173192 19.1660389682395831
 56.2849682926755293 48.0566836589095985 19.1660389682395831
 48.9320330880336485 55.0594790919018919 19.1660389682395831
 41.5790978833917393 62.0622745248941996 19.1660389682395831
 34.2261626787498301 69.0650699578864931 19.1660389682395831
 26.8732274741079316 76.0678653908787794 19.1660389682395831
 19.5202922694660082 83.0706608238710800 19.1660389682395831
 42.6295171983405581 18.9950826119916023 19.1660389682395831
 55.9348285210259277 62.4124142965438011 19.1660389682395831
 48.5818933163839972 69.4152097295361017 19.1660389682395831
 41.2289581117421164 76.4180051625283880 19.1660389682395831
 33.8760229071001930 83.4208005955206744 19.1660389682395831
 26.5230877024582909 90.4235960285129750 19.1660389682395831
 48.2317535447343957 83.7709403671702830 19.1660389682395831
 40.8788183400925078 90.7737358001625836 19.1660389682395831
 33.5258831354505702 97.7765312331548699 19.1660389682395831
 -0.2626048287372100 10.7667979782256502 19.1660389682395831
  6.7401906042550817 18.1197331828675559 19.1660389682395831
 -0.6127446003868240 25.1225286158598458 19.1660389682395831
 -7.9656798050287376 32.1253240488521428 19.1660389682395831
 13.7429860372473733 25.4726683875094650 19.1660389682395831
  6.3900508326054695 32.4754638205017514 19.1660389682395831
 -0.9628843720364486 39.4782592534940591 19.1660389682395831
 -8.3158195766783525 46.4810546864863454 19.1660389682395831
 -15.6687547813202599 53.4838501194786389 19.1660389682395831
 28.0987166748815689 25.8228081591590737 19.1660389682395831
 20.7457814702396632 32.8256035921513742 19.1660389682395831
 13.3928462655977576 39.8283990251436677 19.1660389682395831
  6.0399110609558520 46.8311944581359612 19.1660389682395831
 -1.3130241436860608 53.8339898911282546 19.1660389682395831
 -8.6659593483279647 60.8367853241205410 19.1660389682395831
 -16.0188945529698756 67.8395807571128415 19.1660389682395831
  7.0903303759046921  3.7640025452333519 19.1660389682395831
 35.1015121078738588 33.1757433638009758 19.1660389682395831
 27.7485769032319425 40.1785387967932692 19.1660389682395831
 20.3956416985900546 47.1813342297855627 19.1660389682395831
 13.0427064939481383 54.1841296627778632 19.1660389682395831
  5.6897712893062256 61.1869250957701496 19.1660389682395831
 -1.6631639153356694 68.1897205287624502 19.1660389682395831
 -9.0160991199775822 75.1925159617547365 19.1660389682395831
 14.0931258088969837 11.1169377498752553 19.1660389682395831
 49.4572427455080685 33.5258831354505986 19.1660389682395831
 42.1043075408661522 40.5286785684428921 19.1660389682395831
 34.7513723362242501 47.5314740014351855 19.1660389682395831
 27.3984371315823516 54.5342694344274932 19.1660389682395831
 20.0455019269404460 61.5370648674197724 19.1660389682395831
 12.6925667222985261 68.5398603004120730 19.1660389682395831
  5.3396315176566240 75.5426557334043736 19.1660389682395831
 -2.0133036869852781 82.5454511663966457 19.1660389682395831
 21.0959212418892754 18.4698729545171823 19.1660389682395831
 56.4600381785003478 40.8788183400925007 19.1660389682395831
 49.1071029738584315 47.8816137730847942 19.1660389682395831
 41.7541677692165436 54.8844092060770805 19.1660389682395831
 34.4012325645746273 61.8872046390693811 19.1660389682395831
 27.0482973599327181 68.8900000720616674 19.1660389682395831
 19.6953621552908196 75.8927955050539822 19.1660389682395831
 12.3424269506489104 82.8955909380462685 19.1660389682395831
 35.4516518795234674 18.8200127261667838 19.1660389682395831
 -7.6155400333791166 17.7695934112179401 19.1660389682395831
 56.1098984068507320 55.2345489777267034 19.1660389682395831
 48.7569632022088371 62.2373444107189968 19.1660389682395831
 41.4040279975669421 69.2401398437112903 19.1660389682395831
 34.0510927929250187 76.2429352767035908 19.1660389682395831
 26.6981575882831237 83.2457307096958914 19.1660389682395831
 19.3452223836412038 90.2485261426881777 19.1660389682395831
 42.4544473125157538 26.1729479308087001 19.1660389682395831
 -15.3186150096706246 39.1281194818444362 19.1660389682395831
 48.4068234305592284 76.5930750483531995 19.1660389682395831
 41.0538882259173121 83.5958704813455142 19.1660389682395831
 33.7009530212753958 90.5986659143378006 19.1660389682395831
 56.8101779501499564 26.5230877024583158 19.1660389682395831
 -23.0216899859621869 60.4866455524709110 19.1660389682395831
 40.7037484542676680 97.9516011189796529 19.1660389682395831
 63.8129733831422357 33.8760229071002215 19.1660389682395831
 67.3022511380699910 37.5462715607862307 12.2416706077670874
  3.2266729261905125 14.4370466319116684 12.2416706077670874
 -4.1262622784513923 21.4398420649039601 12.2416706077670874
 -11.4791974830933050 28.4426374978962535 12.2416706077670874
 10.2294683591828086 21.7899818365535722 12.2416706077670874
  2.8765331545408994 28.7927772695458657 12.2416706077670874
 -4.4764020501010116 35.7955727025381663 12.2416706077670874
 -11.8293372547429136 42.7983681355304526 12.2416706077670874
 -19.1822724593848264 49.8011635685227532 12.2416706077670874
 24.5851989968169988 22.1401216082031844 12.2416706077670874
 17.2322637921750967 29.1429170411954779 12.2416706077670874
  9.8793285875331858 36.1457124741877749 12.2416706077670874
  2.5263933828912855 43.1485079071800612 12.2416706077670874
 -4.8265418217506237 50.1513033401723547 12.2416706077670874
 -12.1794770263925347 57.1540987731646553 12.2416706077670874
 -19.5324122310344563 64.1568942061569629 12.2416706077670874
 -26.8853474356763442 71.1596896391492351 12.2416706077670874
 31.5879944298092958 29.4930568128450901 12.2416706077670874
 24.2350592251673866 36.4958522458373835 12.2416706077670874
 16.8821240205254774 43.4986476788296770 12.2416706077670874
  9.5291888158835754 50.5014431118219704 12.2416706077670874
  2.1762536112416626 57.5042385448142710 12.2416706077670874
 -5.1766815934002572 64.5070339778065716 12.2416706077670874
 -12.5296167980421558 71.5098294107988437 12.2416706077670874
 10.5796081308324137  7.4342511989193714 12.2416706077670874
 45.9437250674435020 29.8431965844947058 12.2416706077670874
 38.5907898628015786 36.8459920174869922 12.2416706077670874
 31.2378546581596801 43.8487874504792927 12.2416706077670874
 23.8849194535177780 50.8515828834715933 12.2416706077670874
 16.5319842488758795 57.8543783164638796 12.2416706077670874
  9.1790490442339525 64.8571737494561802 12.2416706077670874
  1.8261138395920469 71.8599691824484665 12.2416706077670874
 -5.5268213650498481 78.8627646154407671 12.2416706077670874
 17.5824035638247089 14.7871864035612788 12.2416706077670874
 52.9465205004357813 37.1961317891366079 12.2416706077670874
 45.5935852957938721 44.1989272221289013 12.2416706077670874
 38.2406500911519629 51.2017226551211877 12.2416706077670874
 30.8877148865100679 58.2045180881134883 12.2416706077670874
 23.5347796818681410 65.2073135211057888 12.2416706077670874
 16.1818444772262424 72.2101089540980752 12.2416706077670874
  8.8289092725843403 79.2129043870903757 12.2416706077670874
 31.9381342014589009 15.1373261752108963 12.2416706077670874
 59.9493159334280890 44.5490669937785242 12.2416706077670874
 52.5963807287861655 51.5518624267708105 12.2416706077670874
 45.2434455241442635 58.5546578597631253 12.2416706077670874
 37.8905103195023685 65.5574532927553975 12.2416706077670874
 30.5375751148604557 72.5602487257477122 12.2416706077670874
 23.1846399102185394 79.5630441587399844 12.2416706077670874
 15.8317047055766338 86.5658395917322849 12.2416706077670874
 38.9409296344512015 22.4902613798528250 12.2416706077670874
 52.2462409571365569 65.9075930644050061 12.2416706077670874
 44.8933057524946548 72.9103884973973067 12.2416706077670874
 37.5403705478527314 79.9131839303896072 12.2416706077670874
 30.1874353432108400 86.9159793633818936 12.2416706077670874
 22.8345001385689237 93.9187747963742083 12.2416706077670874
 44.5431659808450320 87.2661191350315164 12.2416706077670874
 37.1902307762031228 94.2689145680238028 12.2416706077670874
 60.2994557050776763 30.1933363561443286 12.2416706077670874
 67.7328728031882861 38.2165610549995662 11.0151121192701709
  3.6572945913088093 15.1073361261250056 11.0151121192701709
 -3.6956406133330972 22.1101315591172956 11.0151121192701709
 -11.0485758179750100 29.1129269921095961 11.0151121192701709
 10.6600900243011054 22.4602713307669148 11.0151121192701709
  3.3071548196591927 29.4630667637592083 11.0151121192701709
 -4.0457803849827165 36.4658621967515018 11.0151121192701709
 -11.3987155896246151 43.4686576297437810 11.0151121192701709
 -18.7516507942665278 50.4714530627360816 11.0151121192701709
 25.0158206619352974 22.8104111024165164 11.0151121192701709
 17.6628854572933989 29.8132065354088205 11.0151121192701709
 10.3099502526514843 36.8160019684011104 11.0151121192701709
  2.9570150480095840 43.8187974013934038 11.0151121192701709
 -4.3959201566323358 50.8215928343857044 11.0151121192701709
 -11.7488553612742361 57.8243882673779908 11.0151121192701709
 -19.1017905659161578 64.8271837003702842 11.0151121192701709
 -26.4547257705580492 71.8299791333625848 11.0151121192701709
 32.0186160949275802 30.1633463070584220 11.0151121192701709
 24.6656808902856852 37.1661417400507190 11.0151121192701709
 17.3127456856437760 44.1689371730430196 11.0151121192701709
  9.9598104810018704 51.1717326060353059 11.0151121192701709
  2.6068752763599505 58.1745280390276207 11.0151121192701709
 -4.7460599282819480 65.1773234720199071 11.0151121192701709
 -12.0989951329238608 72.1801189050121934 11.0151121192701709
 11.0102297959507034  8.1045406931327193 11.0151121192701709
 46.3743467325617971 30.5134860787080413 11.0151121192701709
 39.0214115279198808 37.5162815117003277 11.0151121192701709
 31.6684763232779858 44.5190769446926282 11.0151121192701709
 24.3155411186360766 51.5218723776849288 11.0151121192701709
 16.9626059139941638 58.5246678106772293 11.0151121192701709
  9.6096707093522511 65.5274632436695157 11.0151121192701709
  2.2567355047103455 72.5302586766618020 11.0151121192701709
 -5.0961996999315673 79.5330541096541168 11.0151121192701709
 18.0130252289429968 15.4574758977746249 11.0151121192701709
 53.3771421655540763 37.8664212833499505 11.0151121192701709
 46.0242069609121671 44.8692167163422511 11.0151121192701709
 38.6712717562702721 51.8720121493345374 11.0151121192701709
 31.3183365516283594 58.8748075823268380 11.0151121192701709
 23.9654013469864573 65.8776030153191385 11.0151121192701709
 16.6124661423445517 72.8803984483114249 11.0151121192701709
  9.2595309377026247 79.8831938813037254 11.0151121192701709
 32.3687558665771888 15.8076156694242265 11.0151121192701709
 60.3799375985463911 45.2193564879918668 11.0151121192701709
 53.0270023939044819 52.2221519209841532 11.0151121192701709
 45.6740671892625727 59.2249473539764466 11.0151121192701709
 38.3211319846206635 66.2277427869687472 11.0151121192701709
 30.9681967799787543 73.2305382199610193 11.0151121192701709
 23.6152615753368416 80.2333336529533199 11.0151121192701709
 16.2623263706949288 87.2361290859456204 11.0151121192701709
 39.3715512995694823 23.1605508740661570 11.0151121192701709
 52.6768626222548448 66.5778825586183416 11.0151121192701709
 45.3239274176129356 73.5806779916106279 11.0151121192701709
 37.9709922129710407 80.5834734246029427 11.0151121192701709
 30.6180570083291279 87.5862688575952575 11.0151121192701709
 53.7272819372036921 23.5106906457157798 11.0151121192701709
 44.9737876459633412 87.9364086292448661 11.0151121192701709
 37.6208524413214178 94.9392040622371667 11.0151121192701709
 60.7300773701959713 30.8636258503576713 11.0151121192701709
 67.3921435635701016 37.3724470057323686  9.7795868850820451
  3.3165653516906248 14.2632220768578009  9.7795868850820451
 -4.0363698529512826 21.2660175098500943  9.7795868850820451
 -11.3893050575931873 28.2688129428423842  9.7795868850820451
 10.3193607846829174 21.6161572814997101  9.7795868850820451
  2.9664255800410029 28.6189527144919964  9.7795868850820451
 -4.3865096246008974 35.6217481474842828  9.7795868850820451
 -11.7394448292428173 42.6245435804765904  9.7795868850820451
 -19.0923800338847123 49.6273390134688768  9.7795868850820451
 24.6750914223171200 21.9662970531493187  9.7795868850820451
 17.3221562176752073 28.9690924861416121  9.7795868850820451
  9.9692210130333017 35.9718879191339056  9.7795868850820451
  2.6162858083913907 42.9746833521262062  9.7795868850820451
 -4.7366493962505132 49.9774787851184996  9.7795868850820451
 -12.0895846008924206 56.9802742181107931  9.7795868850820451
 -19.4425198055343387 63.9830696511031007  9.7795868850820451
 -26.7954550101762408 70.9858650840953942  9.7795868850820451
 31.6778868553093957 29.3192322577912137  9.7795868850820451
 24.3249516506675008 36.3220276907835142  9.7795868850820451
 16.9720164460255916 43.3248231237758077  9.7795868850820451
  9.6190812413836824 50.3276185567681082  9.7795868850820451
  2.2661460367417696 57.3304139897604017  9.7795868850820451
 -5.0867891679001325 64.3332094227526881  9.7795868850820451
 -12.4397243725420452 71.3360048557450028  9.7795868850820451
 10.6695005563325154  7.2604266438655198  9.7795868850820451
 46.0336174929436055 29.6693720294408365  9.7795868850820451
 38.6806822883016963 36.6721674624331300  9.7795868850820451
 31.3277470836597871 43.6749628954254234  9.7795868850820451
 23.9748118790178850 50.6777583284177098  9.7795868850820451
 16.6218766743759900 57.6805537614100174  9.7795868850820451
  9.2689414697340666 64.6833491944023251  9.7795868850820451
  1.9160062650921574 71.6861446273946115  9.7795868850820451
 -5.4369289395497411 78.6889400603868978  9.7795868850820451
 17.6722959893248159 14.6133618485074130  9.7795868850820451
 53.0364129259358847 37.0223072340827457  9.7795868850820451
 45.6834777212939898 44.0251026670750605  9.7795868850820451
 38.3305425166520877 51.0278981000673326  9.7795868850820451
 30.9776073120101678 58.0306935330596190  9.7795868850820451
 23.6246721073682764 65.0334889660519337  9.7795868850820451
 16.2717369027263672 72.0362843990442201  9.7795868850820451
  8.9188016980844580 79.0390798320365064  9.7795868850820451
 32.0280266269590115 14.9635016201570306  9.7795868850820451
 60.0392083589282066 44.3752424387246549  9.7795868850820451
 52.6862731542862832 51.3780378717169484  9.7795868850820451
 45.3333379496443882 58.3808333047092418  9.7795868850820451
 37.9804027450024790 65.3836287377015566  9.7795868850820451
 30.6274675403605556 72.3864241706938287  9.7795868850820451
 23.2745323357186535 79.3892196036861293  9.7795868850820451
 15.9215971310767550 86.3920150366784156  9.7795868850820451
 39.0308220599513049 22.3164368247989593  9.7795868850820451
 52.3361333826366675 65.7337685093511510  9.7795868850820451
 44.9831981779947512 72.7365639423434374  9.7795868850820451
 37.6302629733528562 79.7393593753357379  9.7795868850820451
 30.2773277687109434 86.7421548083280101  9.7795868850820451
 22.9243925640690449 93.7449502413203248  9.7795868850820451
 44.6330584063451283 87.0922945799776329  9.7795868850820451
 37.2801232017032333 94.0950900129699050  9.7795868850820451
 60.3893481305778010 30.0195118010904665  9.7795868850820451
 -3.2457242231466656  7.6188934527559731  8.4906790199451798
  3.7570712098456287 14.9718286573978787  8.4906790199451798
 -3.5958639947962814 21.9746240903901722  8.4906790199451798
 -10.9487991994381861 28.9774195233824621  8.4906790199451798
 10.7598666428379204 22.3247638620397844  8.4906790199451798
  3.4069314381960094 29.3275592950320743  8.4906790199451798
 -3.9460037664458945 36.3303547280243677  8.4906790199451798
 -11.2989389710878001 43.3331501610166612  8.4906790199451798
 -18.6518741757297128 50.3359455940089617  8.4906790199451798
 25.1155972804721124 22.6749036336893965  8.4906790199451798
 17.7626620758302067 29.6776990666816900  8.4906790199451798
 10.4097268711883064 36.6804944996739977  8.4906790199451798
  3.0567916665463990 43.6832899326662769  8.4906790199451798
 -4.2961435380955155 50.6860853656585775  8.4906790199451798
 -11.6490787427374158 57.6888807986508567  8.4906790199451798
 -19.0020139473793286 64.6916762316431573  8.4906790199451798
 -26.3549491520212378 71.6944716646354578  8.4906790199451798
 32.1183927134644023 30.0278388383312986  8.4906790199451798
 24.7654575088225002 37.0306342713235992  8.4906790199451798
 17.4125223041805981 44.0334297043158998  8.4906790199451798
 10.0595870995386960 51.0362251373081861  8.4906790199451798
  2.7066518948967726 58.0390205703004938  8.4906790199451798
 -4.6462833097451188 65.0418160032927659  8.4906790199451798
 -11.9992185143870280 72.0446114362850665  8.4906790199451798
 11.1100064144875255  7.9690332244055915  8.4906790199451798
 46.4741233510986049 30.3779786099809108  8.4906790199451798
 39.1211881464567028 37.3807740429732149  8.4906790199451798
 31.7682529418147972 44.3835694759655013  8.4906790199451798
 24.4153177371728916 51.3863649089578090  8.4906790199451798
 17.0623825325309930 58.3891603419500882  8.4906790199451798
  9.7094473278890590 65.3919557749423888  8.4906790199451798
  2.3565121232471604 72.3947512079346751  8.4906790199451798
 -4.9964230813947346 79.3975466409269757  8.4906790199451798
 18.1128018474798118 15.3219684290474909  8.4906790199451798
 53.4769187840908984 37.7309138146228236  8.4906790199451798
 46.1239835794489892 44.7337092476151241  8.4906790199451798
 38.7710483748071084 51.7365046806074389  8.4906790199451798
 31.4181131701651921 58.7393001135997181  8.4906790199451798
 24.0651779655232794 65.7420955465920116  8.4906790199451798
 16.7122427608813595 72.7448909795842980  8.4906790199451798
  9.3593075562394539 79.7476864125765985  8.4906790199451798
 32.4685324851140180 15.6721082006971173  8.4906790199451798
 60.4797142170831847 45.0838490192647185  8.4906790199451798
 53.1267790124412755 52.0866444522570049  8.4906790199451798
 45.7738438077993877 59.0894398852493197  8.4906790199451798
 38.4209086031574785 66.0922353182416060  8.4906790199451798
 31.0679733985155728 73.0950307512339066  8.4906790199451798
 23.7150381938736459 80.0978261842262071  8.4906790199451798
 16.3621029892317509 87.1006216172184935  8.4906790199451798
 39.4713279181063115 23.0250434053390229  8.4906790199451798
 52.7766392407916740 66.4423750898912147  8.4906790199451798
 45.4237040361497435 73.4451705228835152  8.4906790199451798
 38.0707688315078627 80.4479659558758158  8.4906790199451798
 30.7178336268659571 87.4507613888681021  8.4906790199451798
 53.8270585557404999 23.3751831769886280  8.4906790199451798
 45.0735642645001349 87.8009011605176966  8.4906790199451798
 37.7206290598582470 94.8036965935099971  8.4906790199451798
 60.8298539887328005 30.7281183816305408  8.4906790199451798
 67.6330704285083186 37.2090155859478031  7.2397930072861216
  3.5574922166288436 14.0997906570732443  7.2397930072861216
 -3.7954429880130611 21.1025860900655324  7.2397930072861216
 -11.1483781926549685 28.1053815230578223  7.2397930072861216
 10.5602876496211380 21.4527258617151446  7.2397930072861216
  3.2073524449792288 28.4555212947074381  7.2397930072861216
 -4.1455827596626733 35.4583167276997244  7.2397930072861216
 -11.4985179643045878 42.4611121606920250  7.2397930072861216
 -18.8514531689464953 49.4639075936843327  7.2397930072861216
 24.9160182872553335 21.8028656333647568  7.2397930072861216
 17.5630830826134314 28.8056610663570503  7.2397930072861216
 10.2101478779715187 35.8084564993493473  7.2397930072861216
  2.8572126733296113 42.8112519323416407  7.2397930072861216
 -4.4957225313123033 49.8140473653339484  7.2397930072861216
 -11.8486577359541982 56.8168427983262205  7.2397930072861216
 -19.2015929405961145 63.8196382313185211  7.2397930072861216
 -26.5545281452380166 70.8224336643108074  7.2397930072861216
 31.9188137202476199 29.1558008380066624  7.2397930072861216
 24.5658785156057178 36.1585962709989630  7.2397930072861216
 17.2129433109638086 43.1613917039912494  7.2397930072861216
  9.8600081063218994 50.1641871369835570  7.2397930072861216
  2.5070729016799831 57.1669825699758576  7.2397930072861216
 -4.8458623029619119 64.1697780029681297  7.2397930072861216
 -12.1987975076038175 71.1725734359604303  7.2397930072861216
 10.9104274212707342  7.0969952240809491  7.2397930072861216
 46.2745443578818296 29.5059406096562782  7.2397930072861216
 38.9216091532399204 36.5087360426485787  7.2397930072861216
 31.5686739485980148 43.5115314756408651  7.2397930072861216
 24.2157387439561056 50.5143269086331657  7.2397930072861216
 16.8628035393142177 57.5171223416254591  7.2397930072861216
  9.5098683346722837 64.5199177746177526  7.2397930072861216
  2.1569331300303851 71.5227132076100389  7.2397930072861216
 -5.1960020746115170 78.5255086406023395  7.2397930072861216
 17.9132228542630294 14.4499304287228583  7.2397930072861216
 53.2773397908741089 36.8588758142981803  7.2397930072861216
 45.9244045862322068 43.8616712472904737  7.2397930072861216
 38.5714693815902976 50.8644666802827743  7.2397930072861216
 31.2185341769483955 57.8672621132750606  7.2397930072861216
 23.8655989723064828 64.8700575462673612  7.2397930072861216
 16.5126637676645771 71.8728529792596618  7.2397930072861216
  9.1597285630226715 78.8756484122519481  7.2397930072861216
 32.2689534918972214 14.8000702003724776  7.2397930072861216
 60.2801352238664094 44.2118110189400966  7.2397930072861216
 52.9272000192244931 51.2146064519323829  7.2397930072861216
 45.5742648145826053 58.2174018849246764  7.2397930072861216
 38.2213296099406961 65.2201973179169840  7.2397930072861216
 30.8683944052987869 72.2229927509092704  7.2397930072861216
 23.5154592006568706 79.2257881839015710  7.2397930072861216
 16.1625239960149756 86.2285836168938431  7.2397930072861216
 39.2717489248895291 22.1530054050143832  7.2397930072861216
 52.5770602475748987 65.5703370895665927  7.2397930072861216
 45.2241250429329824 72.5731325225588932  7.2397930072861216
 37.8711898382910519 79.5759279555511796  7.2397930072861216
 30.5182546336491640 86.5787233885434659  7.2397930072861216
 23.1653194290072513 93.5815188215357807  7.2397930072861216
 44.8739852712833667 86.9288631601930746  7.2397930072861216
 37.5210500666414575 93.9316585931853751  7.2397930072861216
 60.6302749955160323 29.8560803813059010  7.2397930072861216
 66.2167571329772926 37.0019819798617675  6.9310013491914546
  2.1411789210978229 13.8927570509872034  6.9310013491914546
 -5.2117562835440889 20.8955524839795004  6.9310013491914546
 58.5136821566857819 58.3605080504882636  6.9310013491914546
  9.1439743540901119 21.2456922556291161  6.9310013491914546
  1.7910391494482063 28.2484876886214025  6.9310013491914546
 -5.5618960551937047 35.2512831216136959  6.9310013491914546
 -12.9148312598356085 42.2540785546059894  6.9310013491914546
 -20.2677664644775177 49.2568739875982828  6.9310013491914546
 23.4997049917243075 21.5958320272787248  6.9310013491914546
 16.1467697870824018 28.5986274602710218  6.9310013491914546
  8.7938345824404962 35.6014228932633188  6.9310013491914546
  1.4408993777985852 42.6042183262556122  6.9310013491914546
 -5.9120358268433275 49.6070137592478915  6.9310013491914546
 -13.2649710314852420 56.6098091922401920  6.9310013491914546
 -20.6179062361271406 63.6126046252324855  6.9310013491914546
 -27.9708414407690391 70.6154000582247647  6.9310013491914546
 30.5025004247165974 28.9487672319206197  6.9310013491914546
 23.1495652200746989 35.9515626649129274  6.9310013491914546
 15.7966300154327968 42.9543580979052209  6.9310013491914546
  8.4436948107908734 49.9571535308975285  6.9310013491914546
  1.0907596061489677 56.9599489638898220  6.9310013491914546
 -6.2621755984929344 63.9627443968821012  6.9310013491914546
 -13.6151108031348311 70.9655398298743876  6.9310013491914546
  9.4941141257397188  6.8899616179949188  6.9310013491914546
 44.8582310623508107 29.2989070035702426  6.9310013491914546
 37.5052958577089086 36.3017024365625502  6.9310013491914546
 30.1523606530670065 43.3044978695548366  6.9310013491914546
 22.7994254484250831 50.3072933025471158  6.9310013491914546
 15.4464902437831668 57.3100887355394164  6.9310013491914546
  8.0935550391412683 64.3128841685317099  6.9310013491914546
  0.7406198344993626 71.3156796015240104  6.9310013491914546
 -6.6123153701425537 78.3184750345162826  6.9310013491914546
 16.4969095587320140 14.2428968226368262  6.9310013491914546
 51.8610264953430828 36.6518422082121518  6.9310013491914546
 44.5080912907011879 43.6546376412044452  6.9310013491914546
 37.1551560860592858 50.6574330741967387  6.9310013491914546
 29.8022208814173659 57.6602285071890321  6.9310013491914546
 22.4492856767754674 64.6630239401813185  6.9310013491914546
 15.0963504721335475 71.6658193731736191  6.9310013491914546
  7.7434152674916525 78.6686148061659054  6.9310013491914546
 30.8526401963662167 14.5930365942864277  6.9310013491914546
 58.8638219283353834 44.0047774128540539  6.9310013491914546
 51.5108867236934742 51.0075728458463402  6.9310013491914546
 44.1579515190515721 58.0103682788386408  6.9310013491914546
 36.8050163144096700 65.0131637118309413  6.9310013491914546
 29.4520811097677608 72.0159591448232277  6.9310013491914546
 22.0991459051258516 79.0187545778155283  6.9310013491914546
 14.7462107004839424 86.0215500108078288  6.9310013491914546
 37.8554356293585030 21.9459717989283547  6.9310013491914546
 51.1607469520438585 65.3633034834805358  6.9310013491914546
 43.8078117474019564 72.3660989164728505  6.9310013491914546
 36.4548765427600543 79.3688943494651369  6.9310013491914546
 29.1019413381181380 86.3716897824574374  6.9310013491914546
 21.7490061334762288 93.3744852154497380  6.9310013491914546
 43.4576719757523406 86.7218295541070319  6.9310013491914546
 36.1047367711104314 93.7246249870993324  6.9310013491914546
 59.2139616999849707 29.6490467752198548  6.9310013491914546
 67.5499252107129422 38.1439885525570190 13.0630389682395833
  3.4743469988334743 15.0347636236824691 13.0630389682395833
 -3.8785882058084322 22.0375590566747555 13.0630389682395833
 -11.2315234104503450 29.0403544896670560 13.0630389682395833
 10.4771424318257633 22.3876988283243747 13.0630389682395833
  3.1242072271838612 29.3904942613166646 13.0630389682395833
 -4.2287279774580480 36.3932896943089617 13.0630389682395833
 -11.5816631820999589 43.3960851273012551 13.0630389682395833
 -18.9345983867418610 50.3988805602935344 13.0630389682395833
 24.8328730694599606 22.7378385999739834 13.0630389682395833
 17.4799378648180621 29.7406340329662839 13.0630389682395833
 10.1270026601761476 36.7434294659585703 13.0630389682395833
  2.7740674555342455 43.7462248989508709 13.0630389682395833
 -4.5788677491076726 50.7490203319431714 13.0630389682395833
 -11.9318029537495605 57.7518157649354436 13.0630389682395833
 -19.2847381583914803 64.7546111979277441 13.0630389682395833
 -26.6376733630333895 71.7574066309200447 13.0630389682395833
 31.8356685024522541 30.0907738046158890 13.0630389682395833
 24.4827332978103485 37.0935692376081860 13.0630389682395833
 17.1297980931684393 44.0963646706004795 13.0630389682395833
  9.7768628885265336 51.0991601035927658 13.0630389682395833
  2.4239276838846244 58.1019555365850593 13.0630389682395833
 -4.9290075207572777 65.1047509695773527 13.0630389682395833
 -12.2819427253991922 72.1075464025696533 13.0630389682395833
 10.8272822034753702  8.0319681906901703 13.0630389682395833
 46.1913991400864532 30.4409135762655083 13.0630389682395833
 38.8384639354445511 37.4437090092578018 13.0630389682395833
 31.4855287308026419 44.4465044422500881 13.0630389682395833
 24.1325935261607327 51.4492998752423958 13.0630389682395833
 16.7796583215188342 58.4520953082346679 13.0630389682395833
  9.4267231168769179 65.4548907412269756 13.0630389682395833
  2.0737879122350122 72.4576861742192762 13.0630389682395833
 -5.2791472924069005 79.4604816072115625 13.0630389682395833
 17.8300776364676707 15.3849033953320777 13.0630389682395833
 53.1941945730787396 37.7938487809074175 13.0630389682395833
 45.8412593684368375 44.7966442138997110 13.0630389682395833
 38.4883241637949283 51.7994396468919973 13.0630389682395833
 31.1353889591530191 58.8022350798842837 13.0630389682395833
 23.7824537545111063 65.8050305128765842 13.0630389682395833
 16.4295185498692007 72.8078259458688990 13.0630389682395833
  9.0765833452272986 79.8106213788611711 13.0630389682395833
 32.1858082741018592 15.7350431669816988 13.0630389682395833
 60.1969900060710401 45.1467839855493338 13.0630389682395833
 52.8440548014291167 52.1495794185415988 13.0630389682395833
 45.4911195967872430 59.1523748515339207 13.0630389682395833
 38.1381843921453267 66.1551702845262071 13.0630389682395833
 30.7852491875034104 73.1579657175184934 13.0630389682395833
 23.4323139828615155 80.1607611505108082 13.0630389682395833
 16.0793787782195992 87.1635565835030803 13.0630389682395833
 39.1886037070941669 23.0879783716236275 13.0630389682395833
 52.4939150297795152 66.5053100561758015 13.0630389682395833
 45.1409798251375918 73.5081054891680878 13.0630389682395833
 37.7880446204956968 80.5109009221604168 13.0630389682395833
 30.4351094158537911 87.5136963551526890 13.0630389682395833
 53.5443343447283553 23.4381181432732042 13.0630389682395833
 44.7908400534879689 87.8638361268022976 13.0630389682395833
 37.4379048488460668 94.8666315597945839 13.0630389682395833
 60.5471297777206416 30.7910533479151240 13.0630389682395833
 66.2662789126511882 37.4026194090907467 12.2280548490837937
  2.1907007007717150 14.2933944802161772 12.2280548490837937
 -5.1622345038701916 21.2961899132084653 12.2280548490837937
 58.5632039363596562 58.7611454797172215 12.2280548490837937
  9.1934961337640040 21.6463296848580811 12.2280548490837937
  1.8405609291220983 28.6491251178503745 12.2280548490837937
 -5.5123742755198073 35.6519205508426751 12.2280548490837937
 -12.8653094801617183 42.6547159838349614 12.2280548490837937
 -20.2182446848036257 49.6575114168272620 12.2280548490837937
 23.5492267713981960 21.9964694565076897 12.2280548490837937
 16.1962915667562903 28.9992648894999903 12.2280548490837937
  8.8433563621143882 36.0020603224922766 12.2280548490837937
  1.4904211574724773 43.0048557554845772 12.2280548490837937
 -5.8625140471694355 50.0076511884768848 12.2280548490837937
 -13.2154492518113269 57.0104466214691570 12.2280548490837937
 -20.5683844564532450 64.0132420544614575 12.2280548490837937
 -27.9213196610951542 71.0160374874537581 12.2280548490837937
 30.5520222043904894 29.3494046611495918 12.2280548490837937
 23.1990869997485873 36.3522000941418924 12.2280548490837937
 15.8461517951066799 43.3549955271341858 12.2280548490837937
  8.4932165904647619 50.3577909601264864 12.2280548490837937
  1.1402813858228562 57.3605863931187798 12.2280548490837937
 -6.2126538188190423 64.3633818261110662 12.2280548490837937
 -13.5655890234609497 71.3661772591033667 12.2280548490837937
  9.5436359054136020  7.2905990472238820 12.2280548490837937
 44.9077528420246921 29.6995444327992111 12.2280548490837937
 37.5548176373827829 36.7023398657915152 12.2280548490837937
 30.2018824327408808 43.7051352987838015 12.2280548490837937
 22.8489472280989787 50.7079307317761021 12.2280548490837937
 15.4960120234570766 57.7107261647683885 12.2280548490837937
  8.1430768188151497 64.7135215977607032 12.2280548490837937
  0.7901416141732476 71.7163170307529754 12.2280548490837937
 -6.5627935904686545 78.7191124637452759 12.2280548490837937
 16.5464313384058954 14.6435342518657912 12.2280548490837937
 51.9105482750169713 37.0524796374411096 12.2280548490837937
 44.5576130703750763 44.0552750704334102 12.2280548490837937
 37.2046778657331672 51.0580705034257250 12.2280548490837937
 29.8517426610912722 58.0608659364180113 12.2280548490837937
 22.4988074564493523 65.0636613694103119 12.2280548490837937
 15.1458722518074538 72.0664568024025982 12.2280548490837937
  7.7929370471655375 79.0692522353948988 12.2280548490837937
 30.9021619760400945 14.9936740235154140 12.2280548490837937
 58.9133437080092790 44.4054148420830330 12.2280548490837937
 51.5604085033673627 51.4082102750753194 12.2280548490837937
 44.2074732987254890 58.4110057080676199 12.2280548490837937
 36.8545380940835656 65.4138011410599063 12.2280548490837937
 29.5016028894416600 72.4165965740522068 12.2280548490837937
 22.1486676847997508 79.4193920070444932 12.2280548490837937
 14.7957324801578380 86.4221874400367938 12.2280548490837937
 37.9049574090323986 22.3466092281573196 12.2280548490837937
 51.2102687317177754 65.7639409127095291 12.2280548490837937
 43.8573335270758662 72.7667363457018155 12.2280548490837937
 36.5043983224339570 79.7695317786941303 12.2280548490837937
 29.1514631177920442 86.7723272116864024 12.2280548490837937
 52.2606880466665942 22.6967489998069460 12.2280548490837937
 43.5071937554262433 87.1224669833360110 12.2280548490837937
 36.1542585507843341 94.1252624163282974 12.2280548490837937
 59.2634834796588876 30.0496842044488410 12.2280548490837937
 67.7865004036166710 36.6239623925915012 12.3360889213816343
  3.7109221917372004 13.5147374637169335 12.3360889213816343
 -3.6420130129047070 20.5175328967092270 12.3360889213816343
 -10.9949482175466162 27.5203283297015204 12.3360889213816343
 10.7137176247294938 20.8676726683588427 12.3360889213816343
  3.3607824200875882 27.8704681013511326 12.3360889213816343
 -3.9921527845543210 34.8732635343434296 12.3360889213816343
 -11.3450879891962284 41.8760589673357160 12.3360889213816343
 -18.6980231938381394 48.8788544003280236 12.3360889213816343
 25.0694482623636894 21.2178124400084513 12.3360889213816343
 17.7165130577217838 28.2206078730007519 12.3360889213816343
 10.3635778530798870 35.2234033059930454 12.3360889213816343
  3.0106426484379778 42.2261987389853530 12.3360889213816343
 -4.3422925562039474 49.2289941719776323 12.3360889213816343
 -11.6952277608458459 56.2317896049699186 12.3360889213816343
 -19.0481629654877480 63.2345850379622192 12.3360889213816343
 -26.4010981701296572 70.2373804709545198 12.3360889213816343
 32.0722436953559793 28.5707476446503534 12.3360889213816343
 24.7193084907140843 35.5735430776426540 12.3360889213816343
 17.3663732860721751 42.5763385106349546 12.3360889213816343
 10.0134380814302624 49.5791339436272480 12.3360889213816343
  2.6605028767883603 56.5819293766195344 12.3360889213816343
 -4.6924323278535560 63.5847248096118207 12.3360889213816343
 -12.0453675324954546 70.5875202426041142 12.3360889213816343
 11.0638573963791043  6.5119420307246489 12.3360889213816343
 46.4279743329901819 28.9208874162999763 12.3360889213816343
 39.0750391283482870 35.9236828492922768 12.3360889213816343
 31.7221039237063849 42.9264782822845561 12.3360889213816343
 24.3691687190644615 49.9292737152768638 12.3360889213816343
 17.0162335144225665 56.9320691482691359 12.3360889213816343
  9.6632983097806466 63.9348645812614436 12.3360889213816343
  2.3103631051387481 70.9376600142537370 12.3360889213816343
 -5.0425720995031611 77.9404554472460234 12.3360889213816343
 18.0666528293713959 13.8648772353665528 12.3360889213816343
 53.4307697659824683 36.2738226209418855 12.3360889213816343
 46.0778345613405591 43.2766180539341860 12.3360889213816343
 38.7248993566986499 50.2794134869264724 12.3360889213816343
 31.3719641520567620 57.2822089199187801 12.3360889213816343
 24.0190289474148528 64.2850043529110735 12.3360889213816343
 16.6660937427729436 71.2877997859033599 12.3360889213816343
  9.3131585381310344 78.2905952188956604 12.3360889213816343
 32.4223834670055879 14.2150170070161721 12.3360889213816343
 60.4335651989747618 43.6267578255837876 12.3360889213816343
 53.0806299943328526 50.6295532585760810 12.3360889213816343
 45.7276947896909505 57.6323486915683816 12.3360889213816343
 38.3747595850490484 64.6351441245606679 12.3360889213816343
 31.0218243804071570 71.6379395575529685 12.3360889213816343
 23.6688891757652335 78.6407349905452691 12.3360889213816343
 16.3159539711233172 85.6435304235375554 12.3360889213816343
 39.4251788999978743 21.5679522116580742 12.3360889213816343
 52.7304902226832439 64.9852838962102766 12.3360889213816343
 45.3775550180413347 71.9880793292025771 12.3360889213816343
 38.0246198133994397 78.9908747621948635 12.3360889213816343
 30.6716846087575234 85.9936701951871640 12.3360889213816343
 23.3187494041156071 92.9964656281794646 12.3360889213816343
 45.0274152463917261 86.3438099668367443 12.3360889213816343
 37.6744800417498311 93.3466053998290732 12.3360889213816343
 60.7837049706243562 29.2710271879495991 12.3360889213816343
 -2.2468409166037540  7.9265969568536958 11.0578739937673376
  4.7559545163885391 15.2795321614956023 11.0578739937673376
 -2.5969806882533719 22.2823275944878993 11.0578739937673376
 -9.9499158928952784 29.2851230274801893 11.0578739937673376
 11.7587499493808298 22.6324673661375115 11.0578739937673376
  4.4058147447389224 29.6352627991298050 11.0578739937673376
 -2.9471204599029868 36.6380582321220913 11.0578739937673376
 -10.3000556645448942 43.6408536651143848 11.0578739937673376
 -17.6529908691867981 50.6436490981066854 11.0578739937673376
 26.1144805870150236 22.9826071377871237 11.0578739937673376
 18.7615453823731180 29.9854025707794136 11.0578739937673376
 11.4086101777312159 36.9881980037717071 11.0578739937673376
  4.0556749730893085 43.9909934367640005 11.0578739937673376
 -3.2972602315526078 50.9937888697563011 11.0578739937673376
 -10.6501954361945010 57.9965843027485803 11.0578739937673376
 -18.0031306408364244 64.9993797357408880 11.0578739937673376
 -25.3560658454783194 72.0021751687331744 11.0578739937673376
 33.1172760200073242 30.3355423424290294 11.0578739937673376
 25.7643408153654150 37.3383377754213228 11.0578739937673376
 18.4114056107234987 44.3411332084136234 11.0578739937673376
 11.0584704060815895 51.3439286414059026 11.0578739937673376
  3.7055352014396874 58.3467240743982174 11.0578739937673376
 -3.6474000032022289 65.3495195073904966 11.0578739937673376
 -11.0003352078441239 72.3523149403827830 11.0578739937673376
 12.1088897210304349  8.2767367285033160 11.0578739937673376
 47.4730066576415197 30.6856821140786451 11.0578739937673376
 40.1200714529996247 37.6884775470709457 11.0578739937673376
 32.7671362483577155 44.6912729800632391 11.0578739937673376
 25.4142010437158063 51.6940684130555326 11.0578739937673376
 18.0612658390738972 58.6968638460478260 11.0578739937673376
 10.7083306344319844 65.6996592790401195 11.0578739937673376
  3.3553954297900752 72.7024547120324058 11.0578739937673376
 -3.9975397748518198 79.7052501450247064 11.0578739937673376
 19.1116851540227266 15.6296719331452216 11.0578739937673376
 54.4758020906338132 38.0386173187205472 11.0578739937673376
 47.1228668859918898 45.0414127517128406 11.0578739937673376
 39.7699316813499948 52.0442081847051270 11.0578739937673376
 32.4169964767080785 59.0470036176974276 11.0578739937673376
 25.0640612720661800 66.0497990506897281 11.0578739937673376
 17.7111260674242708 73.0525944836820145 11.0578739937673376
 10.3581908627823687 80.0553899166743150 11.0578739937673376
 33.4674157916569186 15.9798117047948214 11.0578739937673376
 61.4785975236261066 45.3915525233624635 11.0578739937673376
 54.1256623189842045 52.3943479563547498 11.0578739937673376
 46.7727271143422882 59.3971433893470504 11.0578739937673376
 39.4197919097003791 66.3999388223393510 11.0578739937673376
 32.0668567050584770 73.4027342553316231 11.0578739937673376
 24.7139215004165678 80.4055296883239237 11.0578739937673376
 17.3609862957746621 87.4083251213162100 11.0578739937673376
 40.4702112246492192 23.3327469094367537 11.0578739937673376
 53.7755225473345746 66.7500785939889454 11.0578739937673376
 46.4225873426926654 73.7528740269812459 11.0578739937673376
 39.0696521380507846 80.7556694599735465 11.0578739937673376
 31.7167169334088683 87.7584648929658329 11.0578739937673376
 54.8259418622834218 23.6828866810863552 11.0578739937673376
 46.0724475710430283 88.1086046646154273 11.0578739937673376
 38.7195123664011476 95.1114000976077136 11.0578739937673376
 61.8287372952757011 31.0358218857282750 11.0578739937673376
 67.2284001411442915 39.2057951775481399 10.9406733613767049
  3.1528219292648183 16.0965702486735758 10.9406733613767049
 -4.2001132753770891 23.0993656816658657 10.9406733613767049
 -11.5530484800189974 30.1021611146581591 10.9406733613767049
 10.1556173622571073 23.4495054533154885 10.9406733613767049
  2.8026821576152017 30.4523008863077820 10.9406733613767049
 -4.5502530470267022 37.4550963193000683 10.9406733613767049
 -11.9031882516686096 44.4578917522923689 10.9406733613767049
 -19.2561234563105188 51.4606871852846552 10.9406733613767049
 24.5113479998913029 23.7996452249650901 10.9406733613767049
 17.1584127952493901 30.8024406579573906 10.9406733613767049
  9.8054775906074898 37.8052360909496841 10.9406733613767049
  2.4525423859655859 44.8080315239419775 10.9406733613767049
 -4.9003928186763268 51.8108269569342710 10.9406733613767049
 -12.2533280233182396 58.8136223899265715 10.9406733613767049
 -19.6062632279601488 65.8164178229188650 10.9406733613767049
  3.5029617009144176  1.7408396110393873 10.9406733613767049
 31.5141434328836105 31.1525804296069921 10.9406733613767049
 24.1612082282416978 38.1553758625992927 10.9406733613767049
 16.8082730235997779 45.1581712955915862 10.9406733613767049
  9.4553378189578794 52.1609667285838867 10.9406733613767049
  2.1024026143159702 59.1637621615761802 10.9406733613767049
 -5.2505325903259319 66.1665575945684594 10.9406733613767049
 -12.6034677949678464 73.1693530275607600 10.9406733613767049
 10.5057571339067106  9.0937748156812965 10.9406733613767049
 45.8698740705177954 31.5027202012566150 10.9406733613767049
 38.5169388658758720 38.5055156342489084 10.9406733613767049
 31.1640036612339912 45.5083110672412090 10.9406733613767049
 23.8110684565920785 52.5111065002335096 10.9406733613767049
 16.4581332519501693 59.5139019332257817 10.9406733613767049
  9.1051980473082494 66.5166973662180965 10.9406733613767049
  1.7522628426663474 73.5194927992103970 10.9406733613767049
 -5.6006723619755476 80.5222882322026550 10.9406733613767049
 17.5085525668989952 16.4467100203231951 10.9406733613767049
 52.8726695035100960 38.8556554058985384 10.9406733613767049
 45.5197342988681726 45.8584508388908176 10.9406733613767049
 38.1667990942262705 52.8612462718831111 10.9406733613767049
 30.8138638895843684 59.8640417048754045 10.9406733613767049
 23.4609286849424699 66.8668371378677193 10.9406733613767049
 16.1079934803005429 73.8696325708599915 10.9406733613767049
  8.7550582756586230 80.8724280038522920 10.9406733613767049
 31.8642832045332085 16.7968497919728073 10.9406733613767049
 59.8754649365024036 46.2085906105404405 10.9406733613767049
 52.5225297318604660 53.2113860435327197 10.9406733613767049
 45.1695945272185710 60.2141814765250203 10.9406733613767049
 37.8166593225766619 67.2169769095173280 10.9406733613767049
 30.4637241179347633 74.2197723425096001 10.9406733613767049
 23.1107889132928506 81.2225677755019149 10.9406733613767049
 15.7578537086509343 88.2253632084941870 10.9406733613767049
 38.8670786375254877 24.1497849966147271 10.9406733613767049
 52.1723899602108503 67.5671166811669224 10.9406733613767049
 44.8194547555689695 74.5699121141592229 10.9406733613767049
 37.4665195509270461 81.5727075471515093 10.9406733613767049
 30.1135843462851476 88.5755029801438383 10.9406733613767049
 53.2228092751596904 24.4999247682643464 10.9406733613767049
 44.4693149839193183 88.9256427517934185 10.9406733613767049
 37.1163797792774233 95.9284381847857048 10.9406733613767049
 60.2256047081519839 31.8528599729062343 10.9406733613767049
 66.2949052289823157 37.2006867081390737  9.7560040116677591
  2.2193270171028407 14.0914617792645132  9.7560040116677591
 -5.1336081875390667 21.0942572122568066  9.7560040116677591
 58.5918302526907979 58.5592127787655699  9.7560040116677591
  9.2221224500951280 21.4443969839064188  9.7560040116677591
  1.8691872454532223 28.4471924168987158  9.7560040116677591
 -5.4837479591886851 35.4499878498910164  9.7560040116677591
 -12.8366831638305925 42.4527832828832956  9.7560040116677591
 -20.1896183684725052 49.4555787158755962  9.7560040116677591
 23.5778530877293235 21.7945367555560310  9.7560040116677591
 16.2249178830874214 28.7973321885483351  9.7560040116677591
  8.8719826784455140 35.8001276215406321  9.7560040116677591
  1.5190474738036119 42.8029230545329114  9.7560040116677591
 -5.8338877308382990 49.8057184875252119  9.7560040116677591
 -13.1868229354802136 56.8085139205175125  9.7560040116677591
 -20.5397581401221245 63.8113093535098059  9.7560040116677591
 -27.8926933447640231 70.8141047865020994  9.7560040116677591
 30.5806485207216134 29.1474719601979331  9.7560040116677591
 23.2277133160797149 36.1502673931902407  9.7560040116677591
 15.8747781114377986 43.1530628261825200  9.7560040116677591
  8.5218429067959001 50.1558582591748063  9.7560040116677591
  1.1689077021539944 57.1586536921671211  9.7560040116677591
 -6.1840275024879183 64.1614491251594075  9.7560040116677591
 -13.5369627071298240 71.1642445581517222  9.7560040116677591
  9.5722622217447331  7.0886663462722268  9.7560040116677591
 44.9363791583558267 29.4976117318475559  9.7560040116677591
 37.5834439537139247 36.5004071648398565  9.7560040116677591
 30.2305087490720190 43.5032025978321428  9.7560040116677591
 22.8775735444301027 50.5059980308244434  9.7560040116677591
 15.5246383397882042 57.5087934638167297  9.7560040116677591
  8.1717031351462843 64.5115888968090303  9.7560040116677591
  0.8187679305043822 71.5143843298013167  9.7560040116677591
 -6.5341672741375305 78.5171797627936314  9.7560040116677591
 16.5750576547370301 14.4416015509141360  9.7560040116677591
 51.9391745913481202 36.8505469364894651  9.7560040116677591
 44.5862393867062110 43.8533423694817515  9.7560040116677591
 37.2333041820642947 50.8561378024740378  9.7560040116677591
 29.8803689774223855 57.8589332354663384  9.7560040116677591
 22.5274337727804692 64.8617286684586531  9.7560040116677591
 15.1744985681385778 71.8645241014509253  9.7560040116677591
  7.8215633634966686 78.8673195344432258  9.7560040116677591
 30.9307882923712185 14.7917413225637517  9.7560040116677591
 58.9419700243404208 44.2034821411313814  9.7560040116677591
 51.5890348196984974 51.2062775741236464  9.7560040116677591
 44.2360996150565953 58.2090730071159541  9.7560040116677591
 36.8831644104146861 65.2118684401082476  9.7560040116677591
 29.5302292057727804 72.2146638731005339  9.7560040116677591
 22.1772940011308748 79.2174593060928345  9.7560040116677591
 14.8243587964889656 86.2202547390851350  9.7560040116677591
 37.9335837253635049 22.1446765272056751  9.7560040116677591
 51.2388950480488887 65.5620082117578562  9.7560040116677591
 43.8859598434069866 72.5648036447501568  9.7560040116677591
 36.5330246387650703 79.5675990777424431  9.7560040116677591
 29.1800894341231611 86.5703945107347437  9.7560040116677591
 52.2893143629977217 22.4948162988552767  9.7560040116677591
 43.5358200717573567 86.9205342823843523  9.7560040116677591
 36.1828848671154333 93.9233297153766671  9.7560040116677591
 59.2921097959900152 29.8477515034971717  9.7560040116677591
 67.9050069685703903 36.3887339703409438  9.8567184782760275
  3.8294287566909215 13.2795090414663850  9.8567184782760275
 -3.5235064479509894 20.2823044744586802  9.8567184782760275
 -10.8764416525929004 27.2850999074509772  9.8567184782760275
 10.8322241896832132 20.6324442461082889  9.8567184782760275
  3.4792889850413022 27.6352396791005788  9.8567184782760275
 -3.8736462196006052 34.6380351120928722  9.8567184782760275
 -11.2265814242425073 41.6408305450851657  9.8567184782760275
 -18.5795166288844165 48.6436259780774591  9.8567184782760275
 25.1879548273174123 20.9825840177579082  9.8567184782760275
 17.8350196226754996 27.9853794507502016  9.8567184782760275
 10.4820844180335921 34.9881748837424951  9.8567184782760275
  3.1291492133916901 41.9909703167347885  9.8567184782760275
 -4.2237859912502262 48.9937657497270891  9.8567184782760275
 -11.5767211958921230 55.9965611827193683  9.8567184782760275
 -18.9296564005340429 62.9993566157116760  9.8567184782760275
 -26.2825916051759378 70.0021520487039481  9.8567184782760275
 32.1907502603096987 28.3355192223998031  9.8567184782760275
 24.8378150556677859 35.3383146553921179  9.8567184782760275
 17.4848798510258874 42.3411100883844043  9.8567184782760275
 10.1319446463839782 49.3439055213766906  9.8567184782760275
  2.7790094417420654 56.3467009543689912  9.8567184782760275
 -4.5739257628998331 63.3494963873612846  9.8567184782760275
 -11.9268609675417423 70.3522918203535710  9.8567184782760275
 11.1823639613328183  6.2767136084740862  9.8567184782760275
 46.5464808979438942 28.6856589940494189  9.8567184782760275
 39.1935456933019992 35.6884544270417194  9.8567184782760275
 31.8406104886600829 42.6912498600340058  9.8567184782760275
 24.4876752840181950 49.6940452930263135  9.8567184782760275
 17.1347400793762858 56.6968407260185998  9.8567184782760275
  9.7818048747343624 63.6996361590109075  9.8567184782760275
  2.4288696700924568 70.7024315920031796  9.8567184782760275
 -4.9240655345494417 77.7052270249954944  9.8567184782760275
 18.1851593943251082 13.6296488131160096  9.8567184782760275
 53.5492763309361948 36.0385941986913281  9.8567184782760275
 46.1963411262942785 43.0413896316836357  9.8567184782760275
 38.8434059216523764 50.0441850646759292  9.8567184782760275
 31.4904707170104672 57.0469804976682227  9.8567184782760275
 24.1375355123685544 64.0497759306605019  9.8567184782760275
 16.7846003077266595 71.0525713636528025  9.8567184782760275
  9.4316651030847538 78.0553667966450888  9.8567184782760275
 32.5408900319593002 13.9797885847656129  9.8567184782760275
 60.5520717639284953 43.3915294033332444  9.8567184782760275
 53.1991365592865790 50.3943248363255236  9.8567184782760275
 45.8462013546446840 57.3971202693178384  9.8567184782760275
 38.4932661500027677 64.3999157023101247  9.8567184782760275
 31.1403309453608657 71.4027111353024111  9.8567184782760275
 23.7873957407189529 78.4055065682947117  9.8567184782760275
 16.4344605360770650 85.4083020012869838  9.8567184782760275
 39.5436854649516007 21.3327237894075381  9.8567184782760275
 52.8489967876369775 64.7500554739597618  9.8567184782760275
 45.4960615829950541 71.7528509069520339  9.8567184782760275
 38.1431263783531591 78.7556463399443345  9.8567184782760275
 30.7901911737112499 85.7584417729366209  9.8567184782760275
 23.4372559690693443 92.7612372059289072  9.8567184782760275
 45.1459218113454313 86.1085815445862295  9.8567184782760275
 37.7929866067035150 93.1113769775785016  9.8567184782760275
 60.9022115355780969 29.0357987656990417  9.8567184782760275
 -2.1641585155610379  7.8665677867903643  8.5663785222018127
  4.8386369174312547 15.2195029914322717  8.5663785222018127
 -2.5142982872106518 22.2222984244245616  8.5663785222018127
 -9.8672334918525628 29.2250938574168586  8.5663785222018127
 11.8414323504235437 22.5724381960741738  8.5663785222018127
  4.4884971457816381 29.5752336290664672  8.5663785222018127
 -2.8644380588602694 36.5780290620587607  8.5663785222018127
 -10.2173732635021803 43.5808244950510684  8.5663785222018127
 -17.5703084681440771 50.5836199280433405  8.5663785222018127
 26.1971629880577446 22.9225779677237824  8.5663785222018127
 18.8442277834158318 29.9253734007160830  8.5663785222018127
 11.4912925787739315 36.9281688337083764  8.5663785222018127
  4.1383573741320170 43.9309642667006770  8.5663785222018127
 -3.2145778305098904 50.9337596996929705  8.5663785222018127
 -10.5675130351517890 57.9365551326852568  8.5663785222018127
 -17.9204482397936999 64.9393505656775574  8.5663785222018127
 -25.2733834444356020 71.9421459986698437  8.5663785222018127
 33.1999584210500274 30.2755131723656845  8.5663785222018127
 25.8470232164081253 37.2783086053579922  8.5663785222018127
 18.4940880117662161 44.2811040383502927  8.5663785222018127
 11.1411528071243104 51.2838994713425862  8.5663785222018127
  3.7882176024824012 58.2866949043348725  8.5663785222018127
 -3.5647176021594937 65.2894903373271660  8.5663785222018127
 -10.9176528068014171 72.2922857703194666  8.5663785222018127
 12.1915721220731434  8.2167075584399818  8.5663785222018127
 47.5556890586842371 30.6256529440153038  8.5663785222018127
 40.2027538540423279 37.6284483770076008  8.5663785222018127
 32.8498186494004329 44.6312438099999014  8.5663785222018127
 25.4968834447585166 51.6340392429922019  8.5663785222018127
 18.1439482401166146 58.6368346759844883  8.5663785222018127
 10.7910130354746983 65.6396301089767746  8.5663785222018127
  3.4380778308327891 72.6424255419690752  8.5663785222018127
 -3.9148573738091095 79.6452209749613900  8.5663785222018127
 19.1943675550654405 15.5696427630818874  8.5663785222018127
 54.5584844916765164 37.9785881486572237  8.5663785222018127
 47.2055492870346143 44.9813835816495100  8.5663785222018127
 39.8526140823927051 51.9841790146418106  8.5663785222018127
 32.4996788777507959 58.9869744476340969  8.5663785222018127
 25.1467436731089045 65.9897698806263975  8.5663785222018127
 17.7938084684669953 72.9925653136186980  8.5663785222018127
 10.4408732638251038 79.9953607466109844  8.5663785222018127
 33.5500981926996289 15.9197825347315085  8.5663785222018127
 61.5612799246688382 45.3315233532991471  8.5663785222018127
 54.2083447200269077 52.3343187862914192  8.5663785222018127
 46.8554095153850199 59.3371142192837340  8.5663785222018127
 39.5024743107430965 66.3399096522760061  8.5663785222018127
 32.1495391061012015 73.3427050852683067  8.5663785222018127
 24.7966039014592923 80.3455005182605930  8.5663785222018127
 17.4436686968173795 87.3482959512528936  8.5663785222018127
 40.5528936256919366 23.2727177393734195  8.5663785222018127
 53.8582049483773062 66.6900494239256290  8.5663785222018127
 46.5052697437353828 73.6928448569179153  8.5663785222018127
 39.1523345390934736 80.6956402899102159  8.5663785222018127
 31.7993993344515893 87.6984357229025022  8.5663785222018127
 54.9086242633261392 23.6228575110230459  8.5663785222018127
 46.1551299720857742 88.0485754945520966  8.5663785222018127
 38.8021947674438792 95.0513709275444114  8.5663785222018127
 61.9114196963184185 30.9757927156649266  8.5663785222018127
 67.2748891951964936 39.0360704885091607  8.3748777124380478
  3.1993109833170186 15.9268455596346055  8.3748777124380478
 -4.1536242213248880 22.9296409926268971  8.3748777124380478
 -11.5065594259667971 29.9324364256191906  8.3748777124380478
 10.2021064163093147 23.2797807642765164  8.3748777124380478
  2.8491712116674037 30.2825761972688063  8.3748777124380478
 -4.5037639929745037 37.2853716302611033  8.3748777124380478
 -11.8566991976164076 44.2881670632533897  8.3748777124380478
 -19.2096344022583168 51.2909624962456832  8.3748777124380478
 24.5578370539435049 23.6299205359261180  8.3748777124380478
 17.2049018493016135 30.6327159689184256  8.3748777124380478
  9.8519666446596954 37.6355114019107120  8.3748777124380478
  2.4990314400177915 44.6383068349030054  8.3748777124380478
 -4.8539037646241177 51.6411022678953131  8.3748777124380478
 -12.2068389692660269 58.6438977008875852  8.3748777124380478
 -19.5597741739079396 65.6466931338798929  8.3748777124380478
  3.5494507549666281  1.5711149220004106  8.3748777124380478
 31.5606324869358055 30.9828557405680272  8.3748777124380478
 24.2076972822938927 37.9856511735603277  8.3748777124380478
 16.8547620776519835 44.9884466065526141  8.3748777124380478
  9.5018268730100779 51.9912420395449146  8.3748777124380478
  2.1488916683681722 58.9940374725372152  8.3748777124380478
 -5.2040435362737369 65.9968329055294873  8.3748777124380478
 -12.5569787409156408 72.9996283385217879  8.3748777124380478
 10.5522461879589127  8.9240501266423138  8.3748777124380478
 45.9163631245700117 31.3329955122176500  8.3748777124380478
 38.5634279199280954 38.3357909452099435  8.3748777124380478
 31.2104927152862004 45.3385863782022369  8.3748777124380478
 23.8575575106442841 52.3413818111945375  8.3748777124380478
 16.5046223060023891 59.3441772441868167  8.3748777124380478
  9.1516871013604657 66.3469726771791102  8.3748777124380478
  1.7987518967185601 73.3497681101713965  8.3748777124380478
 -5.5541833079233385 80.3525635431636971  8.3748777124380478
 17.5550416209512115 16.2769853312842194  8.3748777124380478
 52.9191585575622838 38.6859307168595379  8.3748777124380478
 45.5662233529203817 45.6887261498518527  8.3748777124380478
 38.2132881482784725 52.6915215828441461  8.3748777124380478
 30.8603529436365633 59.6943170158364467  8.3748777124380478
 23.5074177389946612 66.6971124488287330  8.3748777124380478
 16.1544825343527663 73.6999078818210194  8.3748777124380478
  8.8015473297108429 80.7027033148133199  8.3748777124380478
 31.9107722585854034 16.6271251029338458  8.3748777124380478
 59.9219539905545915 46.0388659215014471  8.3748777124380478
 52.5690187859126681 53.0416613544937476  8.3748777124380478
 45.2160835812707731 60.0444567874860411  8.3748777124380478
 37.8631483766288710 67.0472522204783274  8.3748777124380478
 30.5102131719869654 74.0500476534706280  8.3748777124380478
 23.1572779673450562 81.0528430864629286  8.3748777124380478
 15.8043427627031470 88.0556385194552149  8.3748777124380478
 38.9135676915776969 23.9800603075757479  8.3748777124380478
 52.2188790142630737 67.3973919921279503  8.3748777124380478
 44.8659438096211645 74.4001874251202509  8.3748777124380478
 37.5130086049792411 81.4029828581125514  8.3748777124380478
 30.1600734003373354 88.4057782911048236  8.3748777124380478
 53.2692983292119067 24.3302000792253708  8.3748777124380478
 44.5158040379715132 88.7559180627544180  8.3748777124380478
 37.1628688333296111 95.7587134957467185  8.3748777124380478
 60.2720937622041930 31.6831352838672515  8.3748777124380478
 68.1367332375499046 36.2263146351209429  7.3764110234477371
  4.0611550256704323 13.1170897062463787  7.3764110234477371
 -3.2917801789714742 20.1198851392386722  7.3764110234477371
 -10.6447153836133825 27.1226805722309621  7.3764110234477371
 11.0639504586627222 20.4700249108882844  7.3764110234477371
  3.7110152540208183 27.4728203438805778  7.3764110234477371
 -3.6419199506210909 34.4756157768728713  7.3764110234477371
 -10.9948551552629983 41.4784112098651647  7.3764110234477371
 -18.3477903599049057 48.4812066428574653  7.3764110234477371
 25.4196810962969195 20.8201646825379001  7.3764110234477371
 18.0667458916550139 27.8229601155301935  7.3764110234477371
 10.7138106870131047 34.8257555485224870  7.3764110234477371
  3.3608754823712026 41.8285509815147805  7.3764110234477371
 -3.9920597222707102 48.8313464145070739  7.3764110234477371
 -11.3449949269126193 55.8341418474993674  7.3764110234477371
 -18.6979301315545250 62.8369372804916608  7.3764110234477371
 -26.0508653361964306 69.8397327134839543  7.3764110234477371
 32.4224765292892201 28.1730998871798057  7.3764110234477371
 25.0695413246473180 35.1758953201721098  7.3764110234477371
 17.7166061200054017 42.1786907531644033  7.3764110234477371
 10.3636709153634889 49.1814861861566897  7.3764110234477371
  3.0107357107215904 56.1842816191489973  7.3764110234477371
 -4.3421994939203152 63.1870770521412695  7.3764110234477371
 -11.6951346985622244 70.1898724851335629  7.3764110234477371
 11.4140902303123362  6.1142942732540941  7.3764110234477371
 46.7782071669234156 28.5232396588294215  7.3764110234477371
 39.4252719622814993 35.5260350918217114  7.3764110234477371
 32.0723367576396043 42.5288305248140048  7.3764110234477371
 24.7194015529976880 49.5316259578063054  7.3764110234477371
 17.3664663483557860 56.5344213907985917  7.3764110234477371
 10.0135311437138768 63.5372168237908852  7.3764110234477371
  2.6605959390719711 70.5400122567831858  7.3764110234477371
 -4.6923392655699310 77.5428076897754863  7.3764110234477371
 18.4168856633046225 13.4672294778959980  7.3764110234477371
 53.7810025999157020 35.8761748634713271  7.3764110234477371
 46.4280673952737928 42.8789702964636206  7.3764110234477371
 39.0751321906319049 49.8817657294559211  7.3764110234477371
 31.7221969859899779 56.8845611624482075  7.3764110234477371
 24.3692617813480794 63.8873565954405223  7.3764110234477371
 17.0163265767061738 70.8901520284327944  7.3764110234477371
  9.6633913720642681 77.8929474614250950  7.3764110234477371
  2.3104561674223518 84.8957428944173813  7.3764110234477371
 60.7837980329079954 43.2291100681132292  7.3764110234477371
 53.4308628282660862 50.2319055011055227  7.3764110234477371
 46.0779276236241770 57.2347009340978161  7.3764110234477371
 38.7249924189822678 64.2374963670901025  7.3764110234477371
 31.3720572143403693 71.2402918000824030  7.3764110234477371
 24.0191220096984708 78.2430872330747036  7.3764110234477371
 16.6661868050565545 85.2458826660670042  7.3764110234477371
 39.7754117339311080 21.1703044541875229  7.3764110234477371
 53.0807230566164705 64.5876361387397253  7.3764110234477371
 45.7277878519745684 71.5904315717320117  7.3764110234477371
 38.3748526473326450 78.5932270047243264  7.3764110234477371
 31.0219174426907465 85.5960224377166270  7.3764110234477371
 23.6689822380488479 92.5988178707089133  7.3764110234477371
 45.3776480803249456 85.9461622093661930  7.3764110234477371
 38.0247128756830506 92.9489576423584936  7.3764110234477371
 61.1339378045575899 28.8733794304790301  7.3764110234477371
 -2.9579691841623572  7.2548118626621418  6.3781512415680490
  4.0448262488299340 14.6077470673040484  6.3781512415680490
 -3.3081089558119734 21.6105425002963436  6.3781512415680490
 -10.6610441604538817 28.6133379332886335  6.3781512415680490
 11.0476216818222248 21.9606822719459558  6.3781512415680490
  3.6946864771803227 28.9634777049382457  6.3781512415680490
 -3.6582487274615882 35.9662731379305427  6.3781512415680490
 -11.0111839321034957 42.9690685709228291  6.3781512415680490
 -18.3641191367454049 49.9718640039151367  6.3781512415680490
 25.4033523194564204 22.3108220435955680  6.3781512415680490
 18.0504171148145254 29.3136174765878579  6.3781512415680490
 10.6974819101726091 36.3164129095801584  6.3781512415680490
  3.3445467055307052 43.3192083425724519  6.3781512415680490
 -4.0083884991112058 50.3220037755647454  6.3781512415680490
 -11.3613237037531007 57.3247992085570246  6.3781512415680490
 -18.7142589083950170 64.3275946415493252  6.3781512415680490
 -26.0671941130369333 71.3303900745416257  6.3781512415680490
 32.4061477524487245 29.6637572482374772  6.3781512415680490
 25.0532125478068153 36.6665526812297671  6.3781512415680490
 17.7002773431649061 43.6693481142220747  6.3781512415680490
 10.3473421385229969 50.6721435472143540  6.3781512415680490
  2.9944069338810841 57.6749389802066617  6.3781512415680490
 -4.3585282707608179 64.6777344131989338  6.3781512415680490
 -11.7114634754027200 71.6805298461912344  6.3781512415680490
 11.3977614534718317  7.6049516343117674  6.3781512415680490
 46.7618783900829129 30.0138970198870823  6.3781512415680490
 39.4089431854409966 37.0166924528793828  6.3781512415680490
 32.0560079807991087 44.0194878858716692  6.3781512415680490
 24.7030727761572066 51.0222833188639839  6.3781512415680490
 17.3501375715152903 58.0250787518562774  6.3781512415680490
  9.9972023668733812 65.0278741848485566  6.3781512415680490
  2.6442671622314862 72.0306696178408430  6.3781512415680490
 -4.7086680424104337 79.0334650508331436  6.3781512415680490
 18.4005568864641198 14.9578868389536730  6.3781512415680490
 53.7646738230751922 37.3668322245289914  6.3781512415680490
 46.4117386184332972 44.3696276575212920  6.3781512415680490
 39.0588034137913951 51.3724230905135784  6.3781512415680490
 31.7058682091494823 58.3752185235058789  6.3781512415680490
 24.3529330045075767 65.3780139564981653  6.3781512415680490
 16.9999977998656746 72.3808093894904516  6.3781512415680490
  9.6470625952237583 79.3836048224827664  6.3781512415680490
 32.7562875240983189 15.3080266106032781  6.3781512415680490
 60.7674692560674998 44.7197674291709006  6.3781512415680490
 53.4145340514255835 51.7225628621631870  6.3781512415680490
 46.0615988467836885 58.7253582951554876  6.3781512415680490
 38.7086636421417793 65.7281537281477739  6.3781512415680490
 31.3557284374998808 72.7309491611400745  6.3781512415680490
 24.0027932328579503 79.7337445941323750  6.3781512415680490
 16.6498580282160482 86.7365400271246756  6.3781512415680490
 39.7590829570906052 22.6609618152451802  6.3781512415680490
 53.0643942797759891 66.0782934997973967  6.3781512415680490
 45.7114590751340870 73.0810889327896831  6.3781512415680490
 38.3585238704921778 80.0838843657819837  6.3781512415680490
 31.0055886658502722 87.0866797987742700  6.3781512415680490
 23.6526534612083488 94.0894752317665848  6.3781512415680490
 45.3613193034844357 87.4368195704238786  6.3781512415680490
 38.0083840988425408 94.4396150034161934  6.3781512415680490
 61.1176090277170800 30.3640367915367051  6.3781512415680490
 65.7145329389432220 37.9183501752070384  6.8881802496303557
  1.6389547270637541 14.8091252463324921  6.8881802496303557
 -5.7139804775781506 21.8119206793247784  6.8881802496303557
 58.0114579626516971 59.2768762458335345  6.8881802496303557
  8.6417501600560485 22.1620604509743941  6.8881802496303557
  1.2888149554141357 29.1648558839666912  6.8881802496303557
 -6.0641202492277735 36.1676513169589882  6.8881802496303557
 -13.4170554538696756 43.1704467499512674  6.8881802496303557
 -20.7699906585115883 50.1732421829435680  6.8881802496303557
 22.9974807976902333 22.5122002226240028  6.8881802496303557
 15.6445455930483348 29.5149956556163033  6.8881802496303557
  8.2916103884064327 36.5177910886085968  6.8881802496303557
  0.9386751837645253 43.5205865216008903  6.8881802496303557
 -6.4142600208773857 50.5233819545931908  6.8881802496303557
 -13.7671952255192931 57.5261773875854772  6.8881802496303557
 -21.1201304301612112 64.5289728205777919  6.8881802496303557
 -28.4730656348031097 71.5317682535700499  6.8881802496303557
 30.0002762306825304 29.8651354272659049  6.8881802496303557
 22.6473410260406247 36.8679308602582125  6.8881802496303557
 15.2944058213987208 43.8707262932505060  6.8881802496303557
  7.9414706167568134 50.8735217262428066  6.8881802496303557
  0.5885354121148971 57.8763171592351071  6.8881802496303557
 -6.7643997925269979 64.8791125922273721  6.8881802496303557
 -14.1173349971689053 71.8819080252196869  6.8881802496303557
  8.9918899317056500  7.8063298133401950  6.8881802496303557
 44.3560068683167330 30.2152751989155206  6.8881802496303557
 37.0030716636748309 37.2180706319078212  6.8881802496303557
 29.6501364590329217 44.2208660649001075  6.8881802496303557
 22.2972012543910125 51.2236614978924081  6.8881802496303557
 14.9442660497491104 58.2264569308847086  6.8881802496303557
  7.5913308451071977 65.2292523638769950  6.8881802496303557
  0.2383956404652992 72.2320477968692813  6.8881802496303557
 -7.1145395641766065 79.2348432298615819  6.8881802496303557
 15.9946853646979434 15.1592650179821025  6.8881802496303557
 51.3588023013090194 37.5682104035574369  6.8881802496303557
 44.0058670966671102 44.5710058365497304  6.8881802496303557
 36.6529318920252081 51.5738012695420238  6.8881802496303557
 29.2999966873833024 58.5765967025343173  6.8881802496303557
 21.9470614827413932 65.5793921355266320  6.8881802496303557
 14.5941262780994805 72.5821875685189042  6.8881802496303557
  7.2411910734575748 79.5849830015112190  6.8881802496303557
 30.3504160023321354 15.5094047896317235  6.8881802496303557
 58.3615977343013270 44.9211456081993390  6.8881802496303557
 51.0086625296594036 51.9239410411916253  6.8881802496303557
 43.6557273250175086 58.9267364741839330  6.8881802496303557
 36.3027921203755994 65.9295319071762265  6.8881802496303557
 28.9498569157336938 72.9323273401685128  6.8881802496303557
 21.5969217110917846 79.9351227731608134  6.8881802496303557
 14.2439865064498754 86.9379182061531282  6.8881802496303557
 37.3532114353244253 22.8623399942736469  6.8881802496303557
 50.6585227580098163 66.2796716788258209  6.8881802496303557
 43.3055875533678858 73.2824671118181215  6.8881802496303557
 35.9526523487259908 80.2852625448104504  6.8881802496303557
 28.5997171440840745 87.2880579778027084  6.8881802496303557
 51.7089420729586351 23.2124797659232520  6.8881802496303557
 42.9554477817182772 87.6381977494523028  6.8881802496303557
 35.6025125770763538 94.6409931824446318  6.8881802496303557
 58.7117375059509286 30.5654149705651577  6.8881802496303557
 66.1377639626373650 36.5326690150079827  6.0000000000000009
  2.0621857507578909 13.4234440861334114  6.0000000000000009
 -5.2907494538840147 20.4262395191257013  6.0000000000000009
 58.4346889863458330 57.8911950856344646  6.0000000000000009
  9.0649811837501808 20.7763792907753171  6.0000000000000009
  1.7120459791082716 27.7791747237676105  6.0000000000000009
 -5.6408892255336331 34.7819701567599040  6.0000000000000009
 -12.9938244301755379 41.7847655897521904  6.0000000000000009
 -20.3467596348174453 48.7875610227444909  6.0000000000000009
 23.4207118213843799 21.1265190624249328  6.0000000000000009
 16.0677766167424672 28.1293144954172263  6.0000000000000009
  8.7148414121005704 35.1321099284095197  6.0000000000000009
  1.3619062074586594 42.1349053614018203  6.0000000000000009
 -5.9910289971832498 49.1377007943941067  6.0000000000000009
 -13.3439642018251590 56.1404962273864072  6.0000000000000009
 -20.6968994064670753 63.1432916603787078  6.0000000000000009
 -28.0498346111089809 70.1460870933710083  6.0000000000000009
 30.4235072543766734 28.4794542670668420  6.0000000000000009
 23.0705720497347713 35.4822497000591426  6.0000000000000009
 15.7176368450928567 42.4850451330514289  6.0000000000000009
  8.3647016404509564 49.4878405660437153  6.0000000000000009
  1.0117664358090401 56.4906359990360158  6.0000000000000009
 -6.3411687688328655 63.4934314320283164  6.0000000000000009
 -13.6941039734747854 70.4962268650206170  6.0000000000000009
  9.4151209553997841  6.4206486531411251  6.0000000000000009
 44.7792378920108689 28.8295940387164507  6.0000000000000009
 37.4263026873689668 35.8323894717087512  6.0000000000000009
 30.0733674827270647 42.8351849047010376  6.0000000000000009
 22.7204322780851484 49.8379803376933381  6.0000000000000009
 15.3674970734432605 56.8407757706856316  6.0000000000000009
  8.0145618688013229 63.8435712036779250  6.0000000000000009
  0.6616266641594244 70.8463666366702114  6.0000000000000009
 -6.6913085404824741 77.8491620696625120  6.0000000000000009
 16.4179163883920793 13.7735838577830325  6.0000000000000009
 51.7820333250031624 36.1825292433583598  6.0000000000000009
 44.4290981203612674 43.1853246763506533  6.0000000000000009
 37.0761629157193653 50.1881201093429468  6.0000000000000009
 29.7232277110774490 57.1909155423352402  6.0000000000000009
 22.3702925064355291 64.1937109753275479  6.0000000000000009
 15.0173573017936270 71.1965064083198342  6.0000000000000009
  7.6644220971517214 78.1993018413121206  6.0000000000000009
 30.7736470260262820 14.1237236294326358  6.0000000000000009
 58.7848287579954629 43.5354644480002619  6.0000000000000009
 51.4318935533535466 50.5382598809925412  6.0000000000000009
 44.0789583487116516 57.5410553139848560  6.0000000000000009
 36.7260231440697353 64.5438507469771423  6.0000000000000009
 29.3730879394278368 71.5466461799694429  6.0000000000000009
 22.0201527347859098 78.5494416129617434  6.0000000000000009
 14.6672175301440149 85.5522370459540298  6.0000000000000009
 37.7764424590185754 21.4766588340745628  6.0000000000000009
 51.0817537817039522 64.8939905186267652  6.0000000000000009
 43.7288185770620359 71.8967859516190515  6.0000000000000009
 36.3758833724201196 78.8995813846113379  6.0000000000000009
 29.0229481677782104 85.9023768176036526  6.0000000000000009
 21.6700129631363083 92.9051722505959248  6.0000000000000009
 43.3786788054123917 86.2525165892532470  6.0000000000000009
 36.0257436007704968 93.2553120222455334  6.0000000000000009
 59.1349685296450573 29.1797338103660842  6.0000000000000009
 65.7741897550677237 36.3844529111562522  7.6484380999944843
  1.6986115431882505 13.2752279822816828  7.6484380999944843
 -5.6543236614536552 20.2780234152739709  7.6484380999944843
 58.0711147787762059 57.7429789817827412  7.6484380999944843
  8.7014069761805430 20.6281631869235937  7.6484380999944843
  1.3484717715386321 27.6309586199158908  7.6484380999944843
 -6.0044634331032691 34.6337540529081735  7.6484380999944843
 -13.3573986377451774 41.6365494859004670  7.6484380999944843
 -20.7103338423870937 48.6393449188927676  7.6484380999944843
 23.0571376138147350 20.9783029585732024  7.6484380999944843
 15.7042024091728294 27.9810983915654958  7.6484380999944843
  8.3512672045309326 34.9838938245577893  7.6484380999944843
  0.9983319998890288 41.9866892575500827  7.6484380999944843
 -6.3546032047528964 48.9894846905423904  7.6484380999944843
 -13.7075384093947985 55.9922801235346697  7.6484380999944843
 -21.0604736140367059 62.9950755565269844  7.6484380999944843
 -28.4134088186786151 69.9978709895192708  7.6484380999944843
 30.0599330468070285 28.3312381632151009  7.6484380999944843
 22.7069978421651300 35.3340335962073979  7.6484380999944843
 15.3540626375232172 42.3368290291997056  7.6484380999944843
  8.0011274328813009 49.3396244621919848  7.6484380999944843
  0.6481922282393953 56.3424198951842996  7.6484380999944843
 -6.7047429764024997 63.3452153281765717  7.6484380999944843
 -14.0576781810444196 70.3480107611688794  7.6484380999944843
  9.0515467478301463  6.2724325492893911  7.6484380999944843
 44.4156636844412347 28.6813779348647273  7.6484380999944843
 37.0627284797993184 35.6841733678570137  7.6484380999944843
 29.7097932751574092 42.6869688008493000  7.6484380999944843
 22.3568580705155107 49.6897642338416006  7.6484380999944843
 15.0039228658736121 56.6925596668338940  7.6484380999944843
  7.6509876612316816 63.6953550998261946  7.6484380999944843
  0.2980524565897831 70.6981505328184738  7.6484380999944843
 -7.0548827480521119 77.7009459658107744  7.6484380999944843
 16.0543421808224309 13.6253677539313109  7.6484380999944843
 51.4184591174335139 36.0343131395066223  7.6484380999944843
 44.0655239127916190 43.0371085724989300  7.6484380999944843
 36.7125887081496955 50.0399040054912234  7.6484380999944843
 29.3596535035077935 57.0426994384835098  7.6484380999944843
 22.0067182988659020 64.0454948714758387  7.6484380999944843
 14.6537830942239893 71.0482903044680967  7.6484380999944843
  7.3008478895820801 78.0510857374603830  7.6484380999944843
 30.4100728184566300 13.9755075255809125  7.6484380999944843
 58.4212545504258287 43.3872483441485457  7.6484380999944843
 51.0683193457838911 50.3900437771408178  7.6484380999944843
 43.7153841411419961 57.3928392101331326  7.6484380999944843
 36.3624489365000869 64.3956346431254332  7.6484380999944843
 29.0095137318581848 71.3984300761177053  7.6484380999944843
 21.6565785272162792 78.4012255091100201  7.6484380999944843
 14.3036433225743664 85.4040209421022922  7.6484380999944843
 37.4128682514489270 21.3284427302228394  7.6484380999944843
 50.7181795741342825 64.7457744147750418  7.6484380999944843
 43.3652443694924017 71.7485698477673139  7.6484380999944843
 36.0123091648504783 78.7513652807596287  7.6484380999944843
 28.6593739602085726 85.7541607137519151  7.6484380999944843
 21.3064387555666706 92.7569561467442014  7.6484380999944843
 43.0151045978427646 86.1043004854015237  7.6484380999944843
 35.6621693932008625 93.1070959183938101  7.6484380999944843
 58.7713943220754160 29.0315177065143359  7.6484380999944843
  3.4017428120153217  7.2591813130945670 12.2416706077670874
 10.4045382450076129 14.6121165177364762 12.2416706077670874
  3.0516030403657073 21.6149119507287679 12.2416706077670874
 -4.3013321642761975 28.6177073837210614 12.2416706077670874
 17.4073336779999046 21.9650517223783766 12.2416706077670874
 10.0543984733580007 28.9678471553706700 12.2416706077670874
  2.7014632687160933 35.9706425883629706 12.2416706077670874
 -4.6514719359258159 42.9734380213552640 12.2416706077670874
 -12.0044071405677215 49.9762334543475575 12.2416706077670874
 31.7630643156341037 22.3151914940279887 12.2416706077670874
 24.4101291109921981 29.3179869270202857 12.2416706077670874
 17.0571939063502889 36.3207823600125863 12.2416706077670874
  9.7042587017083868 43.3235777930048869 12.2416706077670874
  2.3513234970664705 50.3263732259971874 12.2416706077670874
 -5.0016117075754316 57.3291686589894596 12.2416706077670874
 -12.3545469122173497 64.3319640919817743 12.2416706077670874
 -19.7074821168592464 71.3347595249740465 12.2416706077670874
 38.7658597486263972 29.6681266986698979 12.2416706077670874
 31.4129245439844880 36.6709221316621949 12.2416706077670874
 24.0599893393425859 43.6737175646544955 12.2416706077670874
 16.7070541347006767 50.6765129976467819 12.2416706077670874
  9.3541189300587568 57.6793084306390895 12.2416706077670874
  2.0011837254168618 64.6821038636313688 12.2416706077670874
 -5.3517514792250580 71.6848992966236693 12.2416706077670874
 -12.7046866838669530 78.6876947296159557 12.2416706077670874
 53.1215903862606140 30.0182664703195208 12.2416706077670874
 45.7686551816186906 37.0210619033118178 12.2416706077670874
 38.4157199769767814 44.0238573363041041 12.2416706077670874
 31.0627847723348864 51.0266527692964047 12.2416706077670874
 23.7098495676929808 58.0294482022886910 12.2416706077670874
 16.3569143630510681 65.0322436352809916 12.2416706077670874
  9.0039791584091518 72.0350390682732780 12.2416706077670874
  1.6510439537672532 79.0378345012655785 12.2416706077670874
 24.7602688826417996 14.9622562893860920 12.2416706077670874
 60.1243858192528791 37.3712016749614264 12.2416706077670874
 52.7714506146109841 44.3739971079537270 12.2416706077670874
 45.4185154099690749 51.3767925409460133 12.2416706077670874
 38.0655802053271657 58.3795879739383139 12.2416706077670874
 30.7126450006852565 65.3823834069306002 12.2416706077670874
 23.3597097960433473 72.3851788399229008 12.2416706077670874
 16.0067745914014381 79.3879742729151872 12.2416706077670874
  8.6538393867595289 86.3907697059074735 12.2416706077670874
 -3.9511923926265826 14.2619767460868534 12.2416706077670874
 59.7742460476032562 51.7269323125956149 12.2416706077670874
 52.4213108429613612 58.7297277455879083 12.2416706077670874
 45.0683756383194662 65.7325231785801947 12.2416706077670874
 37.7154404336775499 72.7353186115724952 12.2416706077670874
 30.3625052290356372 79.7381140445648100 12.2416706077670874
 23.0095700243937316 86.7409094775570964 12.2416706077670874
 46.1187949532682993 22.6653312656776187 12.2416706077670874
 -11.6542673689181093 35.6205028167133548 12.2416706077670874
 52.0711710713117526 73.0854583832221181 12.2416706077670874
 44.7182358666698434 80.0882538162144328 12.2416706077670874
 37.3653006620279413 87.0910492492067050 12.2416706077670874
 30.0123654573860215 94.0938446821989913 12.2416706077670874
 -19.3573423452096343 56.9790288873398367 12.2416706077670874
 -26.7102775498515435 63.9818243203321302 12.2416706077670874
 67.4773210238947740 30.3684062419691507 12.2416706077670874
  3.8323644771336172  7.9294708073079070 11.0151121192701709
 10.8351599101259097 15.2824060119498117 11.0151121192701709
  3.4822247054839988 22.2852014449421070 11.0151121192701709
 -3.8707104991579024 29.2879968779343969 11.0151121192701709
 17.8379553431181961 22.6353412165917192 11.0151121192701709
 10.4850201384762940 29.6381366495840091 11.0151121192701709
  3.1320849338343901 36.6409320825762990 11.0151121192701709
 -4.2208502708075208 43.6437275155685924 11.0151121192701709
 -11.5737854754494300 50.6465229485609001 11.0151121192701709
 32.1936859807523916 22.9854809882413242 11.0151121192701709
 24.8407507761104860 29.9882764212336284 11.0151121192701709
 17.4878155714685946 36.9910718542259289 11.0151121192701709
 10.1348803668266800 43.9938672872182153 11.0151121192701709
  2.7819451621847620 50.9966627202105087 11.0151121192701709
 -4.5709900424571401 57.9994581532027880 11.0151121192701709
 -11.9239252470990458 65.0022535861950956 11.0151121192701709
 -19.2768604517409479 72.0050490191873820 11.0151121192701709
 39.1964814137446922 30.3384161928832299 11.0151121192701709
 31.8435462091027759 37.3412116258755304 11.0151121192701709
 24.4906110044608702 44.3440070588678168 11.0151121192701709
 17.1376757998189717 51.3468024918601245 11.0151121192701709
  9.7847405951770625 58.3495979248524108 11.0151121192701709
  2.4318053905351604 65.3523933578447043 11.0151121192701709
 -4.9211298141067559 72.3551887908370048 11.0151121192701709
 18.1880951147678083  8.2796105789575218 11.0151121192701709
 53.5522120513788948 30.6885559645328563 11.0151121192701709
 46.1992768467369928 37.6913513975251462 11.0151121192701709
 38.8463416420950836 44.6941468305174467 11.0151121192701709
 31.4934064374531779 51.6969422635097331 11.0151121192701709
 24.1404712328112652 58.6997376965020194 11.0151121192701709
 16.7875360281693560 65.7025331294943271 11.0151121192701709
  9.4346008235274574 72.7053285624866135 11.0151121192701709
  2.0816656188855411 79.7081239954789140 11.0151121192701709
 25.1908905477601053 15.6325457835994293 11.0151121192701709
 60.5550074843711670 38.0414911691747477 11.0151121192701709
 53.2020722797292720 45.0442866021670625 11.0151121192701709
 45.8491370750873699 52.0470820351593488 11.0151121192701709
 38.4962018704454607 59.0498774681516352 11.0151121192701709
 31.1432666658035444 66.0526729011439357 11.0151121192701709
 23.7903314611616388 73.0554683341362221 11.0151121192701709
 16.4373962565197331 80.0582637671285369 11.0151121192701709
  9.0844610518778346 87.0610592001208232 11.0151121192701709
 -3.5205707275082858 14.9322662403002013 11.0151121192701709
 60.2048677127215583 52.3972218068089504 11.0151121192701709
 52.8519325080796705 59.4000172398012651 11.0151121192701709
 45.4989973034377613 66.4028126727935444 11.0151121192701709
 38.1460620987958379 73.4056081057858307 11.0151121192701709
 30.7931268941539322 80.4084035387781455 11.0151121192701709
 23.4401916895120159 87.4111989717704319 11.0151121192701709
 46.5494166183865872 23.3356207598909471 11.0151121192701709
 -11.2236457037998107 36.2907923109266903 11.0151121192701709
 52.5017927364300476 73.7557478774354536 11.0151121192701709
 45.1488575317881384 80.7585433104277541 11.0151121192701709
 37.7959223271462434 87.7613387434200263 11.0151121192701709
 30.4429871225043271 94.7641341764123410 11.0151121192701709
 -18.9267206800913428 57.6493183815531651 11.0151121192701709
 -26.2796558847332520 64.6521138145454586 11.0151121192701709
 67.9079426890130833 31.0386957361824614 11.0151121192701709
  3.4916352375154318  7.0853567580407022  9.7795868850820451
 10.4944306705077235 14.4382919626826070  9.7795868850820451
  3.1414954658658152 21.4410873956748986  9.7795868850820451
 -4.2114397387760896 28.4438828286671921  9.7795868850820451
 17.4972261035000187 21.7912271673245179  9.7795868850820451
 10.1442908988581113 28.7940226003168078  9.7795868850820451
  2.7913556942161986 35.7968180333090942  9.7795868850820451
 -4.5615795104257035 42.7996134663013876  9.7795868850820451
 -11.9145147150676145 49.8024088992936811  9.7795868850820451
 31.8529567411342072 22.1413669389741230  9.7795868850820451
 24.5000215364923051 29.1441623719664236  9.7795868850820451
 17.1470863318504030 36.1469578049587241  9.7795868850820451
  9.7941511272084938 43.1497532379510105  9.7795868850820451
  2.4412159225665775 50.1525486709433181  9.7795868850820451
 -4.9117192820753210 57.1553441039355974  9.7795868850820451
 -12.2646544867172338 64.1581395369278908  9.7795868850820451
 -19.6175896913591288 71.1609349699201630  9.7795868850820451
 38.8557521741265077 29.4943021436160286  9.7795868850820451
 31.5028169694846056 36.4970975766083328  9.7795868850820451
 24.1498817648426893 43.4998930096006191  9.7795868850820451
 16.7969465602007801 50.5026884425929126  9.7795868850820451
  9.4440113555588745 57.5054838755852273  9.7795868850820451
  2.0910761509169760 64.5082793085774995  9.7795868850820451
 -5.2618590537249261 71.5110747415698000  9.7795868850820451
 -12.6147942583668424 78.5138701745620722  9.7795868850820451
 53.2114828117607033 29.8444419152656479  9.7795868850820451
 45.8585476071187941 36.8472373482579414  9.7795868850820451
 38.5056124024768920 43.8500327812502348  9.7795868850820451
 31.1526771978349899 50.8528282142425212  9.7795868850820451
 23.7997419931930771 57.8556236472348218  9.7795868850820451
 16.4468067885511680 64.8584190802271365  9.7795868850820451
  9.0938715839092623 71.8612145132194087  9.7795868850820451
  1.7409363792673496 78.8640099462117234  9.7795868850820451
 24.8501613081419066 14.7884317343322245  9.7795868850820451
 60.2142782447529896 37.1973771199075429  9.7795868850820451
 52.8613430401110946 44.2001725528998577  9.7795868850820451
 45.5084078354691925 51.2029679858921583  9.7795868850820451
 38.1554726308272905 58.2057634188844446  9.7795868850820451
 30.8025374261853777 65.2085588518767452  9.7795868850820451
 23.4496022215434579 72.2113542848690315  9.7795868850820451
 16.0966670169015593 79.2141497178613179  9.7795868850820451
  8.7437318122596501 86.2169451508536042  9.7795868850820451
 -3.8612999671264685 14.0881521910329930  9.7795868850820451
 59.8641384731033810 51.5531077575417598  9.7795868850820451
 52.5112032684614931 58.5559031905340532  9.7795868850820451
 45.1582680638195697 65.5586986235263396  9.7795868850820451
 37.8053328591776676 72.5614940565186401  9.7795868850820451
 30.4523976545357478 79.5642894895109407  9.7795868850820451
 23.0994624498938457 86.5670849225032129  9.7795868850820451
 46.2086873787683956 22.4915067106237530  9.7795868850820451
 -11.5643749434180112 35.4466782616594784  9.7795868850820451
 52.1610634968118489 72.9116338281682346  9.7795868850820451
 44.8081282921699540 79.9144292611605351  9.7795868850820451
 37.4551930875280448 86.9172246941528499  9.7795868850820451
 30.1022578828861391 93.9200201271451363  9.7795868850820451
 -19.2674499197095344 56.8052043322859532  9.7795868850820451
 -26.6203851243514400 63.8079997652782538  9.7795868850820451
 67.5672134493948988 30.1945816869152708  9.7795868850820451
  3.9321410956704339  7.7939633385807792  8.4906790199451798
 10.9349365286627283 15.1468985432226866  8.4906790199451798
  3.5820013240208146 22.1496939762149765  8.4906790199451798
 -3.7709338806210857 29.1524894092072699  8.4906790199451798
 17.9377319616550182 22.4998337478645922  8.4906790199451798
 10.5847967570131125 29.5026291808568857  8.4906790199451798
  3.2318615523712104 36.5054246138491791  8.4906790199451798
 -4.1210736522707023 43.5082200468414797  8.4906790199451798
 -11.4740088569126097 50.5110154798337661  8.4906790199451798
 32.2934625992892066 22.8499735195141973  8.4906790199451798
 24.9405273946473116 29.8527689525065014  8.4906790199451798
 17.5875921900054024 36.8555643854987949  8.4906790199451798
 10.2346569853634843 43.8583598184910954  8.4906790199451798
  2.8817217807215840 50.8611552514833747  8.4906790199451798
 -4.4712134239203181 57.8639506844756610  8.4906790199451798
 -11.8241486285622326 64.8667461174679687  8.4906790199451798
 -19.1770838332041436 71.8695415504602551  8.4906790199451798
 39.2962580322815000 30.2029087241561065  8.4906790199451798
 31.9433228276395980 37.2057041571484177  8.4906790199451798
 24.5903876229976994 44.2084995901407041  8.4906790199451798
 17.2374524183557867 51.2112950231329975  8.4906790199451798
  9.8845172137138739 58.2140904561252981  8.4906790199451798
  2.5315820090719754 65.2168858891175773  8.4906790199451798
 -4.8213531955699267 72.2196813221098637  8.4906790199451798
 18.2878717333046232  8.1441031102303914  8.4906790199451798
 53.6519886699157240 30.5530484958057258  8.4906790199451798
 46.2990534652738006 37.5558439287980121  8.4906790199451798
 38.9461182606318914 44.5586393617903127  8.4906790199451798
 31.5931830559899822 51.5614347947825991  8.4906790199451798
 24.2402478513480837 58.5642302277749067  8.4906790199451798
 16.8873126467061638 65.5670256607671860  8.4906790199451798
  9.5343774420642724 72.5698210937594723  8.4906790199451798
  2.1814422374223561 79.5726165267517729  8.4906790199451798
 25.2906671662969167 15.4970383148722970  8.4906790199451798
 60.6547841029080033 37.9059837004476350  8.4906790199451798
 53.3018488982660870 44.9087791334399284  8.4906790199451798
 45.9489136936241849 51.9115745664322219  8.4906790199451798
 38.5959784889822828 58.9143699994245083  8.4906790199451798
 31.2430432843403700 65.9171654324168230  8.4906790199451798
 23.8901080796984679 72.9199608654091094  8.4906790199451798
 16.5371728750565623 79.9227562984013957  8.4906790199451798
  9.1842376704146496 86.9255517313936679  8.4906790199451798
 -3.4207941089714735 14.7967587715730744  8.4906790199451798
 60.3046443312583875 52.2617143380818305  8.4906790199451798
 52.9517091266164925 59.2645097710741311  8.4906790199451798
 45.5987739219745691 66.2673052040664174  8.4906790199451798
 38.2458387173326599 73.2701006370587180  8.4906790199451798
 30.8929035126907436 80.2728960700510044  8.4906790199451798
 23.5399683080488522 87.2756915030433191  8.4906790199451798
 46.6491932369233950 23.2001132911638379  8.4906790199451798
 -11.1238690852629887 36.1552848421995776  8.4906790199451798
 -18.4768042899048837 43.1580802751918569  8.4906790199451798
 45.2486341503249463 80.6230358417006414  8.4906790199451798
 37.8956989456830442 87.6258312746929136  8.4906790199451798
 30.5427637410411386 94.6286267076852283  8.4906790199451798
 -18.8269440615545243 57.5138109128260453  8.4906790199451798
 -26.1798792661964299 64.5166063458183601  8.4906790199451798
 68.0077193075498911 30.9031882674553486  8.4906790199451798
  3.7325621024536546  6.9219253382561412  7.2397930072861216
 10.7353575354459458 14.2748605428980504  7.2397930072861216
  3.3824223308040358 21.2776559758903403  7.2397930072861216
 -3.9705128738378699 28.2804514088826338  7.2397930072861216
 17.7381529684382357 21.6277957475399489  7.2397930072861216
 10.3852177637963301 28.6305911805322495  7.2397930072861216
  3.0322825591544191 35.6333866135245430  7.2397930072861216
 -4.3206526454874830 42.6361820465168293  7.2397930072861216
 -11.6735878501293939 49.6389774795091228  7.2397930072861216
 32.0938836060724384 21.9779355191895789  7.2397930072861216
 24.7409484014305363 28.9807309521818581  7.2397930072861216
 17.3880131967886129 35.9835263851741587  7.2397930072861216
 10.0350779921467126 42.9863218181664521  7.2397930072861216
  2.6821427875048016 49.9891172511587385  7.2397930072861216
 -4.6707924171370969 56.9919126841510320  7.2397930072861216
 -12.0237276217790150 63.9947081171433396  7.2397930072861216
 -19.3766628264209153 70.9975035501356189  7.2397930072861216
 39.0966790390647176 29.3308707238314668  7.2397930072861216
 31.7437438344228298 36.3336661568237815  7.2397930072861216
 24.3908086297809135 43.3364615898160608  7.2397930072861216
 17.0378734251390114 50.3392570228083542  7.2397930072861216
  9.6849382204970951 57.3420524558006406  7.2397930072861216
  2.3320030158551788 64.3448478887929411  7.2397930072861216
 -5.0209321887867162 71.3476433217852559  7.2397930072861216
 -12.3738673934286183 78.3504387547775281  7.2397930072861216
 53.4524096766989416 29.6810104954810967  7.2397930072861216
 46.0994744720570253 36.6838059284733760  7.2397930072861216
 38.7465392674151161 43.6866013614656765  7.2397930072861216
 31.3936040627732211 50.6893967944579771  7.2397930072861216
 24.0406688581313084 57.6921922274502634  7.2397930072861216
 16.6877336534893850 64.6949876604425640  7.2397930072861216
  9.3347984488474793 71.6977830934348361  7.2397930072861216
  1.9818632442055844 78.7005785264271367  7.2397930072861216
 25.0910881730801414 14.6250003145476661  7.2397930072861216
 60.4552051096912280 37.0339457001229917  7.2397930072861216
 53.1022699050493117 44.0367411331152852  7.2397930072861216
 45.7493347004074025 51.0395365661075857  7.2397930072861216
 38.3963994957655004 58.0423319990998721  7.2397930072861216
 31.0434642911235912 65.0451274320921868  7.2397930072861216
 23.6905290864816962 72.0479228650844590  7.2397930072861216
 16.3375938818397728 79.0507182980767595  7.2397930072861216
  8.9846586771978565 86.0535137310690459  7.2397930072861216
 -3.6203731021882435 13.9247207712484418  7.2397930072861216
 60.1050653380415980 51.3896763377571943  7.2397930072861216
 52.7521301333997030 58.3924717707494949  7.2397930072861216
 45.3991949287577938 65.3952672037417813  7.2397930072861216
 38.0462597241158846 72.3980626367340960  7.2397930072861216
 30.6933245194739861 79.4008580697263682  7.2397930072861216
 23.3403893148320734 86.4036535027186829  7.2397930072861216
 46.4496142437066268 22.3280752908391875  7.2397930072861216
 -11.3234480784797675 35.2832468418749272  7.2397930072861216
 52.4019903617500802 72.7482024083836762  7.2397930072861216
 45.0490551571081710 79.7509978413759768  7.2397930072861216
 37.6961199524662689 86.7537932743682774  7.2397930072861216
 30.3431847478243704 93.7565887073605495  7.2397930072861216
 -19.0265230547713067 56.6417729125014091  7.2397930072861216
 -26.3794582594132123 63.6445683454937097  7.2397930072861216
 67.8081403143331300 30.0311502671307231  7.2397930072861216
  2.3162488069226286  6.7148917321701056  6.9310013491914546
  9.3190442399149216 14.0678269368120130  6.9310013491914546
  1.9661090352730115 21.0706223698043082  6.9310013491914546
 -5.3868261693688968 28.0734178027965982  6.9310013491914546
 16.3218396729072133 21.4207621414539204  6.9310013491914546
  8.9689044682653076 28.4235575744462032  6.9310013491914546
  1.6159692636234002 35.4263530074385002  6.9310013491914546
 -5.7369659410185125 42.4291484404308008  6.9310013491914546
 -13.0899011456604129 49.4319438734230872  6.9310013491914546
 30.6775703105414088 21.7709019131035362  6.9310013491914546
 23.3246351058994996 28.7736973460958261  6.9310013491914546
 15.9716999012576046 35.7764927790881231  6.9310013491914546
  8.6187646966156972 42.7792882120804165  6.9310013491914546
  1.2658294919737791 49.7820836450727029  6.9310013491914546
 -6.0871057126681212 56.7848790780649892  6.9310013491914546
 -13.4400409173100375 63.7876745110573111  6.9310013491914546
 -20.7929761219519378 70.7904699440495762  6.9310013491914546
 37.6803657435337058 29.1238371177454312  6.9310013491914546
 30.3274305388917966 36.1266325507377388  6.9310013491914546
 22.9744953342498874 43.1294279837300252  6.9310013491914546
 15.6215601296079818 50.1322234167223186  6.9310013491914546
  8.2686249249660726 57.1350188497146192  6.9310013491914546
  0.9156897203241670 64.1378142827069126  6.9310013491914546
 -6.4372454843177493 71.1406097156992132  6.9310013491914546
 -13.7901806889596550 78.1434051486915138  6.9310013491914546
 52.0360963811679156 29.4739768893950540  6.9310013491914546
 44.6831611765259993 36.4767723223873475  6.9310013491914546
 37.3302259718840972 43.4795677553796338  6.9310013491914546
 29.9772907672421880 50.4823631883719344  6.9310013491914546
 22.6243555626002895 57.4851586213642207  6.9310013491914546
 15.2714203579583767 64.4879540543565213  6.9310013491914546
  7.9184851533164640 71.4907494873488218  6.9310013491914546
  0.5655499486745548 78.4935449203411082  6.9310013491914546
 23.6747748775491154 14.4179667084616270  6.9310013491914546
 59.0388918141601877 36.8269120940369561  6.9310013491914546
 51.6859566095182785 43.8297075270292495  6.9310013491914546
 44.3330214048763622 50.8325029600215288  6.9310013491914546
 36.9800862002344601 57.8352983930138294  6.9310013491914546
 29.6271509955925652 64.8380938260061441  6.9310013491914546
 22.2742157909506666 71.8408892589984447  6.9310013491914546
 14.9212805863087610 78.8436846919907310  6.9310013491914546
  7.5683453816668376 85.8464801249830032  6.9310013491914546
 -5.0366863977192713 13.7176871651624026  6.9310013491914546
 58.6887520425105862 51.1826427316711658  6.9310013491914546
 51.3358168378686770 58.1854381646634522  6.9310013491914546
 43.9828816332267749 65.1882335976557385  6.9310013491914546
 36.6299464285848586 72.1910290306480391  6.9310013491914546
 29.2770112239429565 79.1938244636403255  6.9310013491914546
 21.9240760193010544 86.1966198966326544  6.9310013491914546
 45.0333009481755937 22.1210416847531697  6.9310013491914546
 -12.7397613740107936 35.0762132357888916  6.9310013491914546
 50.9856770662190684 72.5411688022976477  6.9310013491914546
 43.6327418615771592 79.5439642352899625  6.9310013491914546
 36.2798066569352500 86.5467596682822489  6.9310013491914546
 28.9268714522933372 93.5495551012745636  6.9310013491914546
 -20.4428363503023327 56.4347393064153735  6.9310013491914546
 43.2826020899275221 93.8996948729241296  6.9310013491914546
 66.3918270188020898 29.8241166610446840  6.9310013491914546
  3.6494168846582813  7.8568983048653660 13.0630389682395833
 10.6522123176505765 15.2098335095072770 13.0630389682395833
  3.2992771130086700 22.2126289424995669 13.0630389682395833
 -4.0536580916332410 29.2154243754918603 13.0630389682395833
 17.6550077506428700 22.5627687141491826 13.0630389682395833
 10.3020725460009555 29.5655641471414796 13.0630389682395833
  2.9491373413590551 36.5683595801337660 13.0630389682395833
 -4.4037978632828541 43.5711550131260523 13.0630389682395833
 -11.7567330679247632 50.5739504461183458 13.0630389682395833
 32.0107383882770620 22.9129084857987877 13.0630389682395833
 24.6578031836351634 29.9157039187910918 13.0630389682395833
 17.3048679789932578 36.9184993517833817 13.0630389682395833
  9.9519327743513450 43.9212947847756681 13.0630389682395833
  2.5989975697094394 50.9240902177679686 13.0630389682395833
 -4.7539376349324733 57.9268856507602550 13.0630389682395833
 -12.1068728395743772 64.9296810837525555 13.0630389682395833
 -19.4598080442162882 71.9324765167448419 13.0630389682395833
 39.0135338212693483 30.2658436904406898 13.0630389682395833
 31.6605986166274462 37.2686391234329903 13.0630389682395833
 24.3076634119855299 44.2714345564252909 13.0630389682395833
 16.9547282073436314 51.2742299894175915 13.0630389682395833
  9.6017930027017222 58.2770254224098778 13.0630389682395833
  2.2488577980598237 65.2798208554021500 13.0630389682395833
 -5.1040774065820891 72.2826162883944505 13.0630389682395833
 18.0051475222924680  8.2070380765149871 13.0630389682395833
 53.3692644589035510 30.6159834620903055 13.0630389682395833
 46.0163292542616489 37.6187788950825990 13.0630389682395833
 38.6633940496197539 44.6215743280748924 13.0630389682395833
 31.3104588449778447 51.6243697610672001 13.0630389682395833
 23.9575236403359391 58.6271651940594865 13.0630389682395833
 16.6045884356940086 65.6299606270517728 13.0630389682395833
  9.2516532310521029 72.6327560600440592 13.0630389682395833
  1.8987180264102221 79.6355514930363597 13.0630389682395833
 25.0079429552847579 15.5599732811568963 13.0630389682395833
 60.3720598918958373 37.9689186667322147 13.0630389682395833
 53.0191246872539423 44.9717140997245224 13.0630389682395833
 45.6661894826120260 51.9745095327168087 13.0630389682395833
 38.3132542779701168 58.9773049657091093 13.0630389682395833
 30.9603190733282148 65.9801003987014099 13.0630389682395833
 23.6073838686863091 72.9828958316936820 13.0630389682395833
 16.2544486640443964 79.9856912646859826 13.0630389682395833
  8.9015134594025014 86.9884866976782689 13.0630389682395833
 -3.7035183199836172 14.8596937378576595 13.0630389682395833
 60.0219201202462358 52.3246493043664245 13.0630389682395833
 52.6689849156043337 59.3274447373587108 13.0630389682395833
 45.3160497109624174 66.3302401703510043 13.0630389682395833
 37.9631145063205153 73.3330356033433048 13.0630389682395833
 30.6101793016786026 80.3358310363356054 13.0630389682395833
 23.2572440970366969 87.3386264693279060 13.0630389682395833
 46.3664690259112433 23.2630482574484176 13.0630389682395833
 -11.4065932962751440 36.2182198084841644 13.0630389682395833
 52.3188451439547038 73.6831753749928993 13.0630389682395833
 44.9659099393128088 80.6859708079851998 13.0630389682395833
 37.6129747346708854 87.6887662409775146 13.0630389682395833
 30.2600395300290046 94.6915616739698009 13.0630389682395833
 -19.1096682725666867 57.5767458791106463 13.0630389682395833
 -26.4626034772085852 64.5795413121029185 13.0630389682395833
 67.7249950965377394 30.9661232337399355 13.0630389682395833
  2.3657705865965215  7.1155291613990759 12.2280548490837937
  9.3685660195888154 14.4684643660409833 12.2280548490837937
  2.0156308149469062 21.4712597990332767 12.2280548490837937
 -5.3373043896950012 28.4740552320255702 12.2280548490837937
 16.3713614525811018 21.8213995706828925 12.2280548490837937
  9.0184262479391979 28.8241950036751859 12.2280548490837937
  1.6654910432972905 35.8269904366674723 12.2280548490837937
 -5.6874441613446116 42.8297858696597586 12.2280548490837937
 -13.0403793659865244 49.8325813026520592 12.2280548490837937
 30.7270920902152938 22.1715393423325011 12.2280548490837937
 23.3741568855733952 29.1743347753247946 12.2280548490837937
 16.0212216809314967 36.1771302083170880 12.2280548490837937
  8.6682864762895893 43.1799256413093815 12.2280548490837937
  1.3153512716476605 50.1827210743016821 12.2280548490837937
 -6.0375839329942309 57.1855165072939684 12.2280548490837937
 -13.3905191376361490 64.1883119402862832 12.2280548490837937
 -20.7434543422780493 71.1911073732785411 12.2280548490837937
 37.7298875232075943 29.5244745469744103 12.2280548490837937
 30.3769523185656993 36.5272699799667038 12.2280548490837937
 23.0240171139237901 43.5300654129590043 12.2280548490837937
 15.6710819092818721 50.5328608459512978 12.2280548490837937
  8.3181467046399611 57.5356562789435984 12.2280548490837937
  0.9652114999980554 64.5384517119358918 12.2280548490837937
 -6.3877237046438502 71.5412471449281639 12.2280548490837937
 16.7215012242307175  7.4656689330486916 12.2280548490837937
 52.0856181608418041 29.8746143186240261 12.2280548490837937
 44.7326829561998878 36.8774097516163124 12.2280548490837937
 37.3797477515579786 43.8802051846086130 12.2280548490837937
 30.0268125469160907 50.8830006176009135 12.2280548490837937
 22.6738773422741779 57.8857960505931999 12.2280548490837937
 15.3209421376322545 64.8885914835854862 12.2280548490837937
  7.9680069329903667 71.8913869165777726 12.2280548490837937
  0.6150717283484539 78.8941823495700731 12.2280548490837937
 23.7242966572230003 14.8186041376905937 12.2280548490837937
 59.0884135938340691 37.2275495232659210 12.2280548490837937
 51.7354783891921883 44.2303449562582216 12.2280548490837937
 44.3825431845502720 51.2331403892505080 12.2280548490837937
 37.0296079799083699 58.2359358222428085 12.2280548490837937
 29.6766727752664501 65.2387312552351091 12.2280548490837937
 22.3237375706245551 72.2415266882273812 12.2280548490837937
 14.9708023659826424 79.2443221212196818 12.2280548490837937
  7.6178671613407367 86.2471175542119681 12.2280548490837937
 -4.9871646180453943 14.1183245943913658 12.2280548490837937
 58.7382738221844676 51.5832801609001308 12.2280548490837937
 51.3853386175425655 58.5860755938924171 12.2280548490837937
 44.0324034129006563 65.5888710268847319 12.2280548490837937
 36.6794682082587542 72.5916664598770041 12.2280548490837937
 29.3265330036168308 79.5944618928693188 12.2280548490837937
 21.9735977989749216 86.5972573258616194 12.2280548490837937
 45.0828227278494893 22.5216791139821240 12.2280548490837937
 -12.6902395943369228 35.4768506650178637 12.2280548490837937
 51.0351988458929497 72.9418062315266127 12.2280548490837937
 43.6822636412510406 79.9446016645189275 12.2280548490837937
 36.3293284366091314 86.9473970975112138 12.2280548490837937
 28.9763932319672186 93.9501925305035002 12.2280548490837937
 -20.3933145706284478 56.8353767356443527 12.2280548490837937
 43.3321238696014319 94.3003323021530946 12.2280548490837937
 66.4413487984759570 30.2247540902736382 12.2280548490837937
  3.8859920775620092  6.3368721448998340 12.3360889213816343
 10.8887875105543035 13.6898073495417396 12.3360889213816343
  3.5358523059123961 20.6926027825340348 12.3360889213816343
 -3.8170828987295131 27.6953982155263247 12.3360889213816343
 17.8915829435465952 21.0427425541836470 12.3360889213816343
 10.5386477389046771 28.0455379871759476 12.3360889213816343
  3.1857125342627768 35.0483334201682339 12.3360889213816343
 -4.1672226703791360 42.0511288531605345 12.3360889213816343
 -11.5201578750210363 49.0539242861528137 12.3360889213816343
 32.2473135811807978 21.3928823258332628 12.3360889213816343
 24.8943783765388815 28.3956777588255562 12.3360889213816343
 17.5414431718969794 35.3984731918178497 12.3360889213816343
 10.1885079672550685 42.4012686248101431 12.3360889213816343
  2.8355727626131646 49.4040640578024295 12.3360889213816343
 -4.5173624420287446 56.4068594907947300 12.3360889213816343
 -11.8702976466706591 63.4096549237870377 12.3360889213816343
 -19.2232328513125523 70.4124503567793170 12.3360889213816343
 39.2501090141730842 28.7458175304751613 12.3360889213816343
 31.8971738095311750 35.7486129634674654 12.3360889213816343
 24.5442386048892800 42.7514083964597518 12.3360889213816343
 17.1913034002473673 49.7542038294520523 12.3360889213816343
  9.8383681956054545 56.7569992624443387 12.3360889213816343
  2.4854329909635453 63.7597946954366179 12.3360889213816343
 -4.8675022136783639 70.7625901284289398 12.3360889213816343
 -12.2204374183202695 77.7653855614212262 12.3360889213816343
 53.6058396518072868 29.0959573021247735 12.3360889213816343
 46.2529044471653847 36.0987527351170669 12.3360889213816343
 38.8999692425234755 43.1015481681093604 12.3360889213816343
 31.5470340378815628 50.1043436011016681 12.3360889213816343
 24.1940988332396820 57.1071390340939615 12.3360889213816343
 16.8411636285977551 64.1099344670862479 12.3360889213816343
  9.4882284239558459 71.1127299000785484 12.3360889213816343
  2.1352932193139473 78.1155253330708348 12.3360889213816343
 25.2445181481884937 14.0399471211913518 12.3360889213816343
 60.6086350847995590 36.4488925067666827 12.3360889213816343
 53.2556998801576569 43.4516879397589904 12.3360889213816343
 45.9027646755157619 50.4544833727512696 12.3360889213816343
 38.5498294708738456 57.4572788057435702 12.3360889213816343
 31.1968942662319435 64.4600742387358707 12.3360889213816343
 23.8439590615900343 71.4628696717281571 12.3360889213816343
 16.4910238569481358 78.4656651047204434 12.3360889213816343
  9.1380886523062124 85.4684605377127582 12.3360889213816343
 -3.4669431270799023 13.3396675778921221 12.3360889213816343
 60.2584953131499432 50.8046231444008853 12.3360889213816343
 52.9055601085080482 57.8074185773931788 12.3360889213816343
 45.5526249038661462 64.8102140103854794 12.3360889213816343
 38.1996896992242370 71.8130094433777657 12.3360889213816343
 30.8467544945823313 78.8158048763700663 12.3360889213816343
 23.4938192899404115 85.8186003093623526 12.3360889213816343
 46.6030442188149649 21.7430220974828750 12.3360889213816343
 -11.1700181033714259 34.6981936485186111 12.3360889213816343
 52.5554203368584467 72.1631492150274028 12.3360889213816343
 45.2024851322165304 79.1659446480196607 12.3360889213816343
 37.8495499275746283 86.1687400810119755 12.3360889213816343
 30.4966147229327191 93.1715355140042618 12.3360889213816343
 -18.8730930796629686 56.0567197191450859 12.3360889213816343
 -26.2260282843048778 63.0595151521373936 12.3360889213816343
 67.9615702894414682 29.4460970737744105 12.3360889213816343
  4.9310244022133443  8.1016668426785046 11.0578739937673376
 11.9338198352056342 15.4546020473204102 11.0578739937673376
  4.5808846305637223 22.4573974803127072 11.0578739937673376
 -2.7720505740781807 29.4601929133050007 11.0578739937673376
 18.9366152681979258 22.8075372519623158 11.0578739937673376
 11.5836800635560220 29.8103326849546164 11.0578739937673376
  4.2307448589141128 36.8131281179469028 11.0578739937673376
 -3.1221903457278000 43.8159235509391962 11.0578739937673376
 -10.4751255503696985 50.8187189839314897 11.0578739937673376
 33.2923459058321214 23.1576770236119316 11.0578739937673376
 25.9394107011902193 30.1604724566042321 11.0578739937673376
 18.5864754965483172 37.1632678895965114 11.0578739937673376
 11.2335402919064080 44.1660633225888120 11.0578739937673376
  3.8806050872644953 51.1688587555811054 11.0578739937673376
 -3.4723301173774033 58.1716541885733918 11.0578739937673376
 -10.8252653220193160 65.1744496215656994 11.0578739937673376
 -18.1782005266612252 72.1772450545579716 11.0578739937673376
 40.2951413388244148 30.5106122282538337 11.0578739937673376
 32.9422061341825128 37.5134076612461342 11.0578739937673376
 25.5892709295406107 44.5162030942384277 11.0578739937673376
 18.2363357248987015 51.5189985272307140 11.0578739937673376
 10.8834005202567958 58.5217939602230075 11.0578739937673376
  3.5304653156148902 65.5245893932152939 11.0578739937673376
 -3.8224698890270226 72.5273848262075944 11.0578739937673376
 19.2867550398475380  8.4518066143281239 11.0578739937673376
 54.6508719764586246 30.8607519999034494 11.0578739937673376
 47.2979367718167154 37.8635474328957429 11.0578739937673376
 39.9450015671748062 44.8663428658880434 11.0578739937673376
 32.5920663625328899 51.8691382988803298 11.0578739937673376
 25.2391311578909985 58.8719337318726161 11.0578739937673376
 17.8861959532490857 65.8747291648649167 11.0578739937673376
 10.5332607486071730 72.8775245978572030 11.0578739937673376
  3.1803255439652638 79.8803200308495178 11.0578739937673376
 26.2895504728398244 15.8047418189700224 11.0578739937673376
 61.6536674094509038 38.2136872045453515 11.0578739937673376
 54.3007322048090160 45.2164826375376592 11.0578739937673376
 46.9477970001670997 52.2192780705299384 11.0578739937673376
 39.5948617955251905 59.2220735035222390 11.0578739937673376
 32.2419265908832813 66.2248689365145395 11.0578739937673376
 24.8889913862413898 73.2276643695068401 11.0578739937673376
 17.5360561815994771 80.2304598024991265 11.0578739937673376
 10.1831209769575572 87.2332552354914128 11.0578739937673376
 -2.4219108024285685 15.1044622756707909 11.0578739937673376
 61.3035276378012952 52.5694178421795471 11.0578739937673376
 53.9505924331593860 59.5722132751718476 11.0578739937673376
 46.5976572285174768 66.5750087081641340 11.0578739937673376
 39.2447220238755605 73.5778041411564345 11.0578739937673376
 31.8917868192336549 80.5805995741487209 11.0578739937673376
 24.5388516145917563 87.5833950071410214 11.0578739937673376
 47.6480765434663169 23.5078167952615509 11.0578739937673376
 -10.1249857787200845 36.4629883462972941 11.0578739937673376
 -17.4779209833619866 43.4657837792895876 11.0578739937673376
 46.2475174568678540 80.9307393457983579 11.0578739937673376
 38.8945822522259803 87.9335347787906443 11.0578739937673376
 31.5416470475840569 94.9363302117829306 11.0578739937673376
 -17.8280607550116201 57.8215144169237689 11.0578739937673376
 -25.1809959596535116 64.8243098499160624 11.0578739937673376
 69.0066026140927988 31.2108917715530580 11.0578739937673376
  3.3278918150896257  8.9187049298564762 10.9406733613767049
 10.3306872480819152 16.2716401344983836 10.9406733613767049
  2.9777520434400104 23.2744355674906842 10.9406733613767049
 -4.3751831612018970 30.2772310004829706 10.9406733613767049
 17.3334826810742122 23.6245753391402964 10.9406733613767049
  9.9805474764322994 30.6273707721325827 10.9406733613767049
  2.6276122717903956 37.6301662051248798 10.9406733613767049
 -4.7253229328515154 44.6329616381171803 10.9406733613767049
 -12.0782581374934246 51.6357570711094738 10.9406733613767049
 31.6892133187084042 23.9747151107899015 10.9406733613767049
 24.3362781140665021 30.9775105437822020 10.9406733613767049
 16.9833429094245929 37.9803059767745026 10.9406733613767049
  9.6304077047826837 44.9831014097667818 10.9406733613767049
  2.2774725001407745 51.9858968427590611 10.9406733613767049
 -5.0754627045011311 58.9886922757513759 10.9406733613767049
 -12.4283979091430403 65.9914877087436764 10.9406733613767049
 -19.7813331137849424 72.9942831417359628 10.9406733613767049
 38.6920087517006976 31.3276503154318071 10.9406733613767049
 31.3390735470587884 38.3304457484241112 10.9406733613767049
 23.9861383424168828 45.3332411814163976 10.9406733613767049
 16.6332031377749807 52.3360366144086910 10.9406733613767049
  9.2802679331330680 59.3388320474009845 10.9406733613767049
  1.9273327284911659 66.3416274803932851 10.9406733613767049
 -5.4256024761507469 73.3444229133855856 10.9406733613767049
 17.6836224527238208  9.2688447015060991 10.9406733613767049
 53.0477393893349003 31.6777900870814264 10.9406733613767049
 45.6948041846929911 38.6805855200737199 10.9406733613767049
 38.3418689800510819 45.6833809530660133 10.9406733613767049
 30.9889337754091727 52.6861763860583068 10.9406733613767049
 23.6359985707672671 59.6889718190506002 10.9406733613767049
 16.2830633661253721 66.6917672520428937 10.9406733613767049
  8.9301281614834487 73.6945626850351800 10.9406733613767049
  1.5771929568415501 80.6973581180274806 10.9406733613767049
 24.6864178857161072 16.6217799061480029 10.9406733613767049
 60.0505348223271866 39.0307252917233285 10.9406733613767049
 52.6975996176852775 46.0335207247156291 10.9406733613767049
 45.3446644130433754 53.0363161577079296 10.9406733613767049
 37.9917292084014662 60.0391115907002160 10.9406733613767049
 30.6387940037595534 67.0419070236925023 10.9406733613767049
 23.2858587991176442 74.0447024566848029 10.9406733613767049
 15.9329235944757528 81.0474978896771034 10.9406733613767049
 39.0421485233502992 16.9719196777976222 10.9406733613767049
 -4.0250433895522857 15.9215003628487679 10.9406733613767049
 59.7003950506775709 53.3864559293575240 10.9406733613767049
 52.3474598460356617 60.3892513623498246 10.9406733613767049
 44.9945246413937525 67.3920467953421110 10.9406733613767049
 37.6415894367518575 74.3948422283344115 10.9406733613767049
 30.2886542321099448 81.3976376613266979 10.9406733613767049
 22.9357190274680285 88.4004330943190126 10.9406733613767049
 46.0449439563425997 24.3248548824395314 10.9406733613767049
 -11.7281183658437982 37.2800264334752711 10.9406733613767049
 51.9973200743860531 74.7449819999840344 10.9406733613767049
 44.6443848697441439 81.7477774329763349 10.9406733613767049
 37.2914496651022418 88.7505728659686355 10.9406733613767049
 29.9385144604603397 95.7533682989608934 10.9406733613767049
 -19.4311933421353480 58.6385525041017388 10.9406733613767049
 -26.7841285467772501 65.6413479370940252 10.9406733613767049
 67.4034700269690745 32.0279298587310421 10.9406733613767049
  2.3943969029276477  6.9135964604474172  9.7560040116677591
  9.3971923359199394 14.2665316650893210  9.7560040116677591
  2.0442571312780338 21.2693270980816216  9.7560040116677591
 -5.3086780733638754 28.2721225310739079  9.7560040116677591
 16.3999877689122329 21.6194668697312338  9.7560040116677591
  9.0470525642703219 28.6222623027235237  9.7560040116677591
  1.6941173596284198 35.6250577357158278  9.7560040116677591
 -5.6588178450134858 42.6278531687081141  9.7560040116677591
 -13.0117530496553933 49.6306486017004005  9.7560040116677591
 30.7557184065464320 21.9696066413808460  9.7560040116677591
 23.4027832019045228 28.9724020743731359  9.7560040116677591
 16.0498479972626136 35.9751975073654293  9.7560040116677591
  8.6969127926207079 42.9779929403577157  9.7560040116677591
  1.3439775879787987 49.9807883733500233  9.7560040116677591
 -6.0089576166630980 56.9835838063423026  9.7560040116677591
 -13.3618928213050214 63.9863792393346174  9.7560040116677591
 -20.7148280259469253 70.9891746723268966  9.7560040116677591
 37.7585138395387148 29.3225418460227445  9.7560040116677591
 30.4055786348968162 36.3253372790150451  9.7560040116677591
 23.0526434302549106 43.3281327120073385  9.7560040116677591
 15.6997082256130014 50.3309281449996391  9.7560040116677591
  8.3467730209710957 57.3337235779919183  9.7560040116677591
  0.9938378163291937 64.3365190109842047  9.7560040116677591
 -6.3590973883127297 71.3393144439765194  9.7560040116677591
 16.7501275405618415  7.2637362320970311  9.7560040116677591
 52.1142444771729245 29.6726816176723567  9.7560040116677591
 44.7613092725310082 36.6754770506646537  9.7560040116677591
 37.4083740678890990 43.6782724836569471  9.7560040116677591
 30.0554388632472183 50.6810679166492477  9.7560040116677591
 22.7025036586053055 57.6838633496415270  9.7560040116677591
 15.3495684539633821 64.6866587826338275  9.7560040116677591
  7.9966332493214871 71.6894542156261139  9.7560040116677591
  0.6436980446795779 78.6922496486184286  9.7560040116677591
 23.7529229735541279 14.6166714367389368  9.7560040116677591
 59.1170399101652109 37.0256168223142623  9.7560040116677591
 51.7641047055233088 44.0284122553065558  9.7560040116677591
 44.4111695008813925 51.0312076882988492  9.7560040116677591
 37.0582342962394904 58.0340031212911356  9.7560040116677591
 29.7052990915975883 65.0367985542834504  9.7560040116677591
 22.3523638869556827 72.0395939872757509  9.7560040116677591
 14.9994286823137664 79.0423894202680515  9.7560040116677591
  7.6464934776718536 86.0451848532603094  9.7560040116677591
 -4.9585383017142526 13.9163918934397124  9.7560040116677591
 58.7669001385155880 51.3813474599484650  9.7560040116677591
 51.4139649338736930 58.3841428929407726  9.7560040116677591
 44.0610297292317838 65.3869383259330590  9.7560040116677591
 36.7080945245898747 72.3897337589253596  9.7560040116677591
 29.3551593199479761 79.3925291919176459  9.7560040116677591
 22.0022241153060598 86.3953246249099607  9.7560040116677591
 45.1114490441806097 22.3197464130304759  9.7560040116677591
 -12.6616132780057775 35.2749179640662049  9.7560040116677591
 51.0638251622240915 72.7398735305749824  9.7560040116677591
 43.7108899575821823 79.7426689635672830  9.7560040116677591
 36.3579547529402589 86.7454643965595409  9.7560040116677591
 29.0050195482983426 93.7482598295518557  9.7560040116677591
 -20.3646882542973167 56.6334440346926797  9.7560040116677591
 43.3607501859325453 94.0983996012014643  9.7560040116677591
 66.4699751148071130 30.0228213893219937  9.7560040116677591
  4.0044986425157294  6.1016437226492863  9.8567184782760275
 11.0072940755080211 13.4545789272911946  9.8567184782760275
  3.6543588708661128 20.4573743602834845  9.8567184782760275
 -3.6985763337757938 27.4601697932757816  9.8567184782760275
 18.0100895085003074 20.8075141319331003  9.8567184782760275
 10.6571543038584053 27.8103095649253902  9.8567184782760275
  3.3042190992164944 34.8131049979176979  9.8567184782760275
 -4.0487161054254130 41.8159004309099842  9.8567184782760275
 -11.4016513100673187 48.8186958639022777  9.8567184782760275
 32.3658201461345101 21.1576539035827160  9.8567184782760275
 25.0128849414926044 28.1604493365750059  9.8567184782760275
 17.6599497368506917 35.1632447695673065  9.8567184782760275
 10.3070145322087861 42.1660402025595928  9.8567184782760275
  2.9540793275668769 49.1688356355518934  9.8567184782760275
 -4.3988558770750181 56.1716310685441726  9.8567184782760275
 -11.7517910817169362 63.1744265015364732  9.8567184782760275
 -19.1047262863588401 70.1772219345287596  9.8567184782760275
 39.3686155791267964 28.5105891082246110  9.8567184782760275
 32.0156803744849014 35.5133845412169222  9.8567184782760275
 24.6627451698429851 42.5161799742092086  9.8567184782760275
 17.3098099652010831 49.5189754072015020  9.8567184782760275
  9.9568747605591739 56.5217708401937955  9.8567184782760275
  2.6039395559172753 63.5245662731860818  9.8567184782760275
 -4.7489956487246410 70.5273617061783824  9.8567184782760275
 -12.1019308533665502 77.5301571391706688  9.8567184782760275
 53.7243462167610062 28.8607288798742339  9.8567184782760275
 46.3714110121190970 35.8635243128665309  9.8567184782760275
 39.0184758074771878 42.8663197458588101  9.8567184782760275
 31.6655406028352928 49.8691151788511178  9.8567184782760275
 24.3126053981933836 56.8719106118434041  9.8567184782760275
 16.9596701935514602 63.8747060448357047  9.8567184782760275
  9.6067349889095475 70.8775014778279910  9.8567184782760275
  2.2537997842676560 77.8802969108202774  9.8567184782760275
 25.3630247131422060 13.8047186989408122  9.8567184782760275
 60.7271416497532996 36.2136640845161395  9.8567184782760275
 53.3742064451113905 43.2164595175084472  9.8567184782760275
 46.0212712404694884 50.2192549505007406  9.8567184782760275
 38.6683360358275721 57.2220503834930270  9.8567184782760275
 31.3154008311856664 64.2248458164853275  9.8567184782760275
 23.9624656265437608 71.2276412494776139  9.8567184782760275
 16.6095304219018516 78.2304366824699002  9.8567184782760275
  9.2565952172599353 85.2332321154621866  9.8567184782760275
 -3.3484365621261789 13.1044391556415771  9.8567184782760275
 60.3770018781036839 50.5693947221503350  9.8567184782760275
 53.0240666734617747 57.5721901551426356  9.8567184782760275
 45.6711314688198584 64.5749855881349220  9.8567184782760275
 38.3181962641779563 71.5777810211272083  9.8567184782760275
 30.9652610595360436 78.5805764541195231  9.8567184782760275
 23.6123258548941521 85.5833718871118094  9.8567184782760275
 46.7215507837686914 21.5077936752323353  9.8567184782760275
 -11.0515115384177065 34.4629652262680679  9.8567184782760275
 52.6739269018121377 71.9279207927768311  9.8567184782760275
 45.3209916971702427 78.9307162257691317  9.8567184782760275
 37.9680564925283335 85.9335116587614323  9.8567184782760275
 30.6151212878864243 92.9363070917537044  9.8567184782760275
 -18.7545865147092279 55.8214912968945498  9.8567184782760275
 -26.1075217193511477 62.8242867298868433  9.8567184782760275
 68.0800768543952017 29.2108686515238460  9.8567184782760275
  5.0137068032560599  8.0416376726151739  8.5663785222018127
 12.0165022362483516 15.3945728772570796  8.5663785222018127
  4.6635670316064486 22.3973683102493730  8.5663785222018127
 -2.6893681730354615 29.4001637432416700  8.5663785222018127
 19.0192976692406432 22.7475080818989852  8.5663785222018127
 11.6663624645987376 29.7503035148912822  8.5663785222018127
  4.3134272599568337 36.7530989478835721  8.5663785222018127
 -3.0395079446850755 43.7558943808758656  8.5663785222018127
 -10.3924431493269758 50.7586898138681590  8.5663785222018127
 33.3750283068748459 23.0976478535485974  8.5663785222018127
 26.0220931022329367 30.1004432865408873  8.5663785222018127
 18.6691578975910346 37.1032387195331808  8.5663785222018127
 11.3162226929491254 44.1060341525254813  8.5663785222018127
  3.9632874883072127 51.1088295855177748  8.5663785222018127
 -3.3896477163346930 58.1116250185100682  8.5663785222018127
 -10.7425829209765951 65.1144204515023546  8.5663785222018127
 -18.0955181256185114 72.1172158844946694  8.5663785222018127
 40.3778237398671465 30.4505830581905101  8.5663785222018127
 33.0248885352252302 37.4533784911828036  8.5663785222018127
 25.6719533305833139 44.4561739241750971  8.5663785222018127
 18.3190181259414011 51.4589693571673763  8.5663785222018127
 10.9660829212994955 58.4617647901596840  8.5663785222018127
  3.6131477166575969 65.4645602231519632  8.5663785222018127
 -3.7397874879843158 72.4673556561442638  8.5663785222018127
 19.3694374408902448  8.3917774442647843  8.5663785222018127
 54.7335543775013349 30.8007228298401152  8.5663785222018127
 47.3806191728594328 37.8035182628324122  8.5663785222018127
 40.0276839682175236 44.8063136958247057  8.5663785222018127
 32.6747487635756357 51.8091091288169991  8.5663785222018127
 25.3218135589337123 58.8119045618092855  8.5663785222018127
 17.9688783542917783 65.8146999948015861  8.5663785222018127
 10.6159431496498904 72.8174954277938724  8.5663785222018127
  3.2630079450079883 79.8202908607861730  8.5663785222018127
 26.3722328738825453 15.7447126489066882  8.5663785222018127
 61.7363498104936212 38.1536580344820280  8.5663785222018127
 54.3834146058517121 45.1564534674743214  8.5663785222018127
 47.0304794012098029 52.1592489004666220  8.5663785222018127
 39.6775441965679079 59.1620443334589083  8.5663785222018127
 32.3246089919259845 66.1648397664512231  8.5663785222018127
 24.9716737872840788 73.1676351994435095  8.5663785222018127
 17.6187385826421803 80.1704306324357958  8.5663785222018127
 10.2658033780002604 87.1732260654280822  8.5663785222018127
 -2.3392284013858373 15.0444331056074656  8.5663785222018127
 61.3862100388439984 52.5093886721162164  8.5663785222018127
 54.0332748342021176 59.5121841051085170  8.5663785222018127
 46.6803396295601871 66.5149795381007891  8.5663785222018127
 39.3274044249182850 73.5177749710931039  8.5663785222018127
 31.9744692202763794 80.5205704040853902  8.5663785222018127
 24.6215340156344737 87.5233658370776908  8.5663785222018127
 47.7307589445090272 23.4477876251982202  8.5663785222018127
 -10.0423033776773654 36.4029591762339635  8.5663785222018127
 -17.3952385823192692 43.4057546092262498  8.5663785222018127
 46.3301998579105927 80.8707101757350131  8.5663785222018127
 38.9772646532686764 87.8735056087273279  8.5663785222018127
 31.6243294486267779 94.8763010417196000  8.5663785222018127
 -17.7453783539689240 57.7614852468604454  8.5663785222018127
 -25.0983135586108119 64.7642806798527317  8.5663785222018127
 69.0892850151355162 31.1508626014897381  8.5663785222018127
  3.3743808691418304  8.7489802408175041  8.3748777124380478
 10.3771763021341226 16.1019154454594151  8.3748777124380478
  3.0242410974922151 23.1047108784517086  8.3748777124380478
 -4.3286941071496914 30.1075063114440020  8.3748777124380478
 17.3799717351264142 23.4548506501013136  8.3748777124380478
 10.0270365304845104 30.4576460830936071  8.3748777124380478
  2.6741013258426012 37.4604415160859077  8.3748777124380478
 -4.6788338787993116 44.4632369490782011  8.3748777124380478
 -12.0317690834412172 51.4660323820704946  8.3748777124380478
 31.7357023727606133 23.8049904217509400  8.3748777124380478
 24.3827671681187041 30.8077858547432228  8.3748777124380478
 17.0298319634767950 37.8105812877355163  8.3748777124380478
  9.6768967588348840 44.8133767207278169  8.3748777124380478
  2.3239615541929872 51.8161721537200961  8.3748777124380478
 -5.0289736504489220 58.8189675867123967  8.3748777124380478
 -12.3819088550908383 65.8217630197046901  8.3748777124380478
 -19.7348440597327404 72.8245584526969765  8.3748777124380478
 38.7384978057529139 31.1579256263928386  8.3748777124380478
 31.3855626011109976 38.1607210593851320  8.3748777124380478
 24.0326273964690920 45.1635164923774184  8.3748777124380478
 16.6796921918271792 52.1663119253697189  8.3748777124380478
  9.3267569871852736 59.1691073583620124  8.3748777124380478
  1.9738217825433715 66.1719027913543130  8.3748777124380478
 -5.3791134220985377 73.1746982243465851  8.3748777124380478
 17.7301115067760158  9.0991200124671359  8.3748777124380478
 53.0942284433871023 31.5080653980424472  8.3748777124380478
 45.7412932387451932 38.5108608310347407  8.3748777124380478
 38.3883580341032911 45.5136562640270341  8.3748777124380478
 31.0354228294613961 52.5164516970193489  8.3748777124380478
 23.6824876248194869 59.5192471300116210  8.3748777124380478
 16.3295524201775528 66.5220425630039358  8.3748777124380478
  8.9766172155356543 73.5248379959962222  8.3748777124380478
  1.6236820108937629 80.5276334289885227  8.3748777124380478
 24.7329069397683057 16.4520552171090237  8.3748777124380478
 60.0970238763793887 38.8610006026843564  8.3748777124380478
 52.7440886717374937 45.8637960356766570  8.3748777124380478
 45.3911534670955703 52.8665914686689504  8.3748777124380478
 38.0382182624536682 59.8693869016612297  8.3748777124380478
 30.6852830578117661 66.8721823346535444  8.3748777124380478
 23.3323478531698569 73.8749777676458308  8.3748777124380478
 15.9794126485279442 80.8777732006381171  8.3748777124380478
 39.0886375774024941 16.8021949887586430  8.3748777124380478
 -3.9785543355000734 15.7517756738098029  8.3748777124380478
 59.7468841047297730 53.2167312403185662  8.3748777124380478
 52.3939489000878851 60.2195266733108525  8.3748777124380478
 45.0410136954459688 67.2223221063031531  8.3748777124380478
 37.6880784908040667 74.2251175392954394  8.3748777124380478
 30.3351432861621504 81.2279129722877400  8.3748777124380478
 22.9822080815202483 88.2307084052800263  8.3748777124380478
 46.0914330103947876 24.1551301934005700  8.3748777124380478
 -11.6816293117916032 37.1103017444362990  8.3748777124380478
 52.0438091284382409 74.5752573109450339  8.3748777124380478
 44.6908739237963601 81.5780527439373486  8.3748777124380478
 37.3379387191544367 88.5808481769296492  8.3748777124380478
 29.9850035145125311 95.5836436099219213  8.3748777124380478
 -19.3847042880831424 58.4688278150627880  8.3748777124380478
 -26.7376394927250409 65.4716232480550673  8.3748777124380478
 67.4499590810212908 31.8582051696920807  8.3748777124380478
  4.2362249114952402  5.9392243874292783  7.3764110234477371
 11.2390203444875318 13.2921595920711866  7.3764110234477371
  3.8860851398456235 20.2949550250634800  7.3764110234477371
 -3.4668500647962794 27.2977504580557664  7.3764110234477371
 18.2418157774798217 20.6450947967130958  7.3764110234477371
 10.8888805728379126 27.6478902297053963  7.3764110234477371
  3.5359453681960087 34.6506856626976756  7.3764110234477371
 -3.8169898364458987 41.6534810956899761  7.3764110234477371
 -11.1699250410878079 48.6562765286822625  7.3764110234477371
 32.5975464151140173 20.9952345683627009  7.3764110234477371
 25.2446112104721081 27.9980300013549943  7.3764110234477371
 17.8916760058302167 35.0008254343472984  7.3764110234477371
 10.5387408011883004 42.0036208673395848  7.3764110234477371
  3.1858055965463876 49.0064163003318924  7.3764110234477371
 -4.1671296080955180 56.0092117333241717  7.3764110234477371
 -11.5200648127374290 63.0120071663164794  7.3764110234477371
 -18.8730000173793293 70.0148025993087657  7.3764110234477371
 39.6003418481063179 28.3481697730046101  7.3764110234477371
 32.2474066434644087 35.3509652059969071  7.3764110234477371
 24.8944714388224924 42.3537606389891934  7.3764110234477371
 17.5415362341805974 49.3565560719814940  7.3764110234477371
 10.1886010295386882 56.3593515049737874  7.3764110234477371
  2.8356658248967896 63.3621469379660880  7.3764110234477371
 -4.5172693797451231 70.3649423709583886  7.3764110234477371
 -11.8702045843870359 77.3677378039506891  7.3764110234477371
 53.9560724857405134 28.6983095446542222  7.3764110234477371
 46.6031372810986184 35.7011049776465228  7.3764110234477371
 39.2502020764567163 42.7039004106388091  7.3764110234477371
 31.8972668718147929 49.7066958436311097  7.3764110234477371
 24.5443316671729015 56.7094912766233961  7.3764110234477371
 17.1913964625309887 63.7122867096156966  7.3764110234477371
  9.8384612578890760 70.7150821426079972  7.3764110234477371
  2.4855260532471668 77.7178775756002835  7.3764110234477371
 25.5947509821217274 13.6422993637208059  7.3764110234477371
 60.9588679187327855 36.0512447492961243  7.3764110234477371
 53.6059327140908906 43.0540401822884320  7.3764110234477371
 46.2529975094489672 50.0568356152807112  7.3764110234477371
 38.9000623048070793 57.0596310482730118  7.3764110234477371
 31.5471271001651772 64.0624264812653195  7.3764110234477371
 24.1941918955232893 71.0652219142575916  7.3764110234477371
 16.8412566908813730 78.0680173472499064  7.3764110234477371
  9.4883214862394354 85.0708127802421927  7.3764110234477371
 -3.1167102931466597 12.9420198204215762  7.3764110234477371
 60.6087281470831698 50.4069753869303270  7.3764110234477371
 53.2557929424413032 57.4097708199226417  7.3764110234477371
 45.9028577377993798 64.4125662529149139  7.3764110234477371
 38.5499225331574706 71.4153616859072287  7.3764110234477371
 31.1969873285155685 78.4181571188995008  7.3764110234477371
 23.8440521238736594 85.4209525518918156  7.3764110234477371
 46.9532770527482199 21.3453743400123486  7.3764110234477371
 -10.8197852694381833 34.3005458910480669  7.3764110234477371
 52.9056531707916804 71.7655014575568373  7.3764110234477371
 45.5527179661497712 78.7682968905491236  7.3764110234477371
 38.1997827615078620 85.7710923235414242  7.3764110234477371
 30.8468475568659493 92.7738877565337248  7.3764110234477371
 -18.5228602457297278 55.6590719616745488  7.3764110234477371
 -25.8757954503716263 62.6618673946668423  7.3764110234477371
 37.8496429898582392 100.1268229611756055  7.3764110234477371
  4.2198961346547428  7.4298817484869497  6.3781512415680490
 11.2226915676470345 14.7828169531288545  6.3781512415680490
  3.8697563630051270 21.7856123861211479  6.3781512415680490
 -3.4831788416367857 28.7884078191134449  6.3781512415680490
 18.2254870006393297 22.1357521577707672  6.3781512415680490
 10.8725517959974205 29.1385475907630536  6.3781512415680490
  3.5196165913555113 36.1413430237553541  6.3781512415680490
 -3.8333186132863997 43.1441384567476547  6.3781512415680490
 -11.1862538179282964 50.1469338897399268  6.3781512415680490
 32.5812176382735217 22.4858919294203758  6.3781512415680490
 25.2282824336316125 29.4886873624126657  6.3781512415680490
 17.8753472289897140 36.4914827954049628  6.3781512415680490
 10.5224120243478030 43.4942782283972633  6.3781512415680490
  3.1694768197058920 50.4970736613895426  6.3781512415680490
 -4.1834583849360136 57.4998690943818431  6.3781512415680490
 -11.5363935895779282 64.5026645273741508  6.3781512415680490
 -18.8893287942198285 71.5054599603664229  6.3781512415680490
 39.5840130712658222 29.8388271340622779  6.3781512415680490
 32.2310778666239059 36.8416225670545714  6.3781512415680490
 24.8781426619820110 43.8444180000468720  6.3781512415680490
 17.5252074573401018 50.8472134330391512  6.3781512415680490
 10.1722722526981855 57.8500088660314589  6.3781512415680490
  2.8193370480562798 64.8528042990237594  6.3781512415680490
 -4.5335981565856223 71.8555997320160316  6.3781512415680490
 -11.8865333612275279 78.8583951650083321  6.3781512415680490
 53.9397437089000178 30.1889669057118937  6.3781512415680490
 46.5868085042581157 37.1917623387041871  6.3781512415680490
 39.2338732996162065 44.1945577716964806  6.3781512415680490
 31.8809380949742902 51.1973532046887740  6.3781512415680490
 24.5280028903323917 58.2001486376810746  6.3781512415680490
 17.1750676856904825 65.2029440706733681  6.3781512415680490
  9.8221324810485804 72.2057395036656544  6.3781512415680490
  2.4691972764066712 79.2085349366579408  6.3781512415680490
 25.5784222052812282 15.1329567247784773  6.3781512415680490
 60.9425391418923112 37.5419021103538100  6.3781512415680490
 53.5896039372504021 44.5446975433461034  6.3781512415680490
 46.2366687326085000 51.5474929763384040  6.3781512415680490
 38.8837335279665979 58.5502884093306903  6.3781512415680490
 31.5307983233246780 65.5530838423229767  6.3781512415680490
 24.1778631186827759 72.5558792753152915  6.3781512415680490
 16.8249279140408738 79.5586747083075636  6.3781512415680490
  9.4719927093989611 86.5614701412998500  6.3781512415680490
 -3.1330390699871575 14.4326771814792458  6.3781512415680490
 60.5923993702426742 51.8976327479879984  6.3781512415680490
 53.2394641656007934 58.9004281809802990  6.3781512415680490
 45.8865289609588984 65.9032236139725995  6.3781512415680490
 38.5335937563169821 72.9060190469648717  6.3781512415680490
 31.1806585516750623 79.9088144799571722  6.3781512415680490
 23.8277233470331673 86.9116099129494728  6.3781512415680490
 46.9369482759077314 22.8360317010700093  6.3781512415680490
 -10.8361140462786807 35.7912032521057384  6.3781512415680490
 -18.1890492509205934 42.7939986850980461  6.3781512415680490
 45.5363891893092685 80.2589542516068093  6.3781512415680490
 38.1834539846673593 87.2617496845990814  6.3781512415680490
 30.8305187800254430 94.2645451175913820  6.3781512415680490
 -18.5391890225702234 57.1497293227322203  6.3781512415680490
 -25.8921242272121290 64.1525247557245137  6.3781512415680490
 68.2954743465341920 30.5391066773615201  6.3781512415680490
  1.8140246128885620  7.6312599275153898  6.8881802496303557
  8.8168200458808546 14.9841951321572964  6.8881802496303557
  1.4638848412389480 21.9869905651495898  6.8881802496303557
 -5.8890503634029594 28.9897859981418833  6.8881802496303557
 15.8196154788731462 22.3371303367992020  6.8881802496303557
  8.4666802742312406 29.3399257697914990  6.8881802496303557
  1.1137450695893332 36.3427212027837925  6.8881802496303557
 -6.2391901350525778 43.3455166357760930  6.8881802496303557
 -13.5921253396944746 50.3483120687683652  6.8881802496303557
 30.1753461165073347 22.6872701084488142  6.8881802496303557
 22.8224109118654326 29.6900655414411112  6.8881802496303557
 15.4694757072235252 36.6928609744334011  6.8881802496303557
  8.1165405025816177 43.6956564074257017  6.8881802496303557
  0.7636052979397050 50.6984518404180022  6.8881802496303557
 -6.5893299067021935 57.7012472734102886  6.8881802496303557
 -13.9422651113441045 64.7040427064025749  6.8881802496303557
 -21.2952003159860048 71.7068381393948613  6.8881802496303557
 37.1781415494996281 30.0402053130907198  6.8881802496303557
 29.8252063448577189 37.0430007460830240  6.8881802496303557
 22.4722711402158239 44.0457961790753174  6.8881802496303557
 15.1193359355739112 51.0485916120676109  6.8881802496303557
  7.7664007309320127 58.0513870450598972  6.8881802496303557
  0.4134655262900999 65.0541824780521836  6.8881802496303557
 -6.9394696783518128 72.0569779110444983  6.8881802496303557
 16.1697552505227584  7.9813996991650020  6.8881802496303557
 51.5338721871338379 30.3903450847403391  6.8881802496303557
 44.1809369824919358 37.3931405177326326  6.8881802496303557
 36.8280017778500195 44.3959359507249332  6.8881802496303557
 29.4750665732081245 51.3987313837172124  6.8881802496303557
 22.1221313685662153 58.4015268167095059  6.8881802496303557
 14.7691961639242955 65.4043222497018064  6.8881802496303557
  7.4162609592823934 72.4071176826941070  6.8881802496303557
  0.0633257546404877 79.4099131156863791  6.8881802496303557
 23.1725506835150377 15.3343349038069015  6.8881802496303557
 58.5366676201261242 37.7432802893822341  6.8881802496303557
 51.1837324154842221 44.7460757223745418  6.8881802496303557
 43.8307972108423129 51.7488711553668210  6.8881802496303557
 36.4778620062004038 58.7516665883591145  6.8881802496303557
 29.1249268015585088 65.7544620213514435  6.8881802496303557
 21.7719915969165925 72.7572574543437156  6.8881802496303557
 14.4190563922746762 79.7600528873360304  6.8881802496303557
  7.0661211876327741 86.7628483203283025  6.8881802496303557
 -5.5389105917533383 14.6340553605076913  6.8881802496303557
 58.1865278484765014 52.0990109270164368  6.8881802496303557
 50.8335926438346064 59.1018063600087515  6.8881802496303557
 43.4806574391926972 66.1046017930010379  6.8881802496303557
 36.1277222345507951 73.1073972259933385  6.8881802496303557
 28.7747870299088895 80.1101926589856248  6.8881802496303557
 21.4218518252669803 87.1129880919779396  6.8881802496303557
 44.5310767541415373 23.0374098800984477  6.8881802496303557
 -13.2419855680448606 35.9925814311341767  6.8881802496303557
 50.4834528721849836 73.4575369976429471  6.8881802496303557
 43.1305176675430886 80.4603324306352192  6.8881802496303557
 35.7775824629011794 87.4631278636275340  6.8881802496303557
 28.4246472582592702 94.4659232966198203  6.8881802496303557
 -20.9450605443363997 57.3511075017606728  6.8881802496303557
 42.7803778958934657 94.8160630682694290  6.8881802496303557
 65.8896028247680476 30.7404848563899655  6.8881802496303557
  2.2372556365826979  6.2455787673163137  6.0000000000000009
  9.2400510695749940 13.5985139719582211  6.0000000000000009
  1.8871158649330848 20.6013094049505128  6.0000000000000009
 -5.4658193397088244 27.6041048379428133  6.0000000000000009
 16.2428465025672821 20.9514491766001285  6.0000000000000009
  8.8899112979253747 27.9542446095924255  6.0000000000000009
  1.5369760932834691 34.9570400425847225  6.0000000000000009
 -5.8159591113584419 41.9598354755770089  6.0000000000000009
 -13.1688943160003529 48.9626309085693094  6.0000000000000009
 30.5985771402014741 21.3015889482497371  6.0000000000000009
 23.2456419355595756 28.3043843812420306  6.0000000000000009
 15.8927067309176611 35.3071798142343312  6.0000000000000009
  8.5397715262757625 42.3099752472266246  6.0000000000000009
  1.1868363216338516 49.3127706802189181  6.0000000000000009
 -6.1660988830080541 56.3155661132112044  6.0000000000000009
 -13.5190340876499686 63.3183615462035050  6.0000000000000009
 -20.8719692922918618 70.3211569791958055  6.0000000000000009
 37.6013725731937640 28.6545241528916392  6.0000000000000009
 30.2484373685518761 35.6573195858839398  6.0000000000000009
 22.8955021639099598 42.6601150188762333  6.0000000000000009
 15.5425669592680542 49.6629104518685338  6.0000000000000009
  8.1896317546261415 56.6657058848608344  6.0000000000000009
  0.8366965499842358 63.6685013178531136  6.0000000000000009
 -6.5162386546576663 70.6712967508454000  6.0000000000000009
 -13.8691738592995684 77.6740921838377005  6.0000000000000009
 51.9571032108279738 29.0046639245412550  6.0000000000000009
 44.6041680061860646 36.0074593575335484  6.0000000000000009
 37.2512328015441625 43.0102547905258419  6.0000000000000009
 29.8982975969022604 50.0130502235181496  6.0000000000000009
 22.5453623922603548 57.0158456565104288  6.0000000000000009
 15.1924271876184385 64.0186410895027223  6.0000000000000009
  7.8394919829765257 71.0214365224950370  6.0000000000000009
  0.4865567783346165 78.0242319554873376  6.0000000000000009
 23.5957817072091736 13.9486537436078315  6.0000000000000009
 58.9598986438202672 36.3575991291831642  6.0000000000000009
 51.6069634391783580 43.3603945621754576  6.0000000000000009
 44.2540282345364417 50.3631899951677440  6.0000000000000009
 36.9010930298945325 57.3659854281600445  6.0000000000000009
 29.5481578252526234 64.3687808611523309  6.0000000000000009
 22.1952226206107355 71.3715762941446457  6.0000000000000009
 14.8422874159688156 78.3743717271369462  6.0000000000000009
  7.4893522113269100 85.3771671601292041  6.0000000000000009
 -5.1156795680591953 13.2483742003086107  6.0000000000000009
 58.6097588721706444 50.7133297668173597  6.0000000000000009
 51.2568236675287494 57.7161251998096674  6.0000000000000009
 43.9038884628868402 64.7189206328019537  6.0000000000000009
 36.5509532582449310 71.7217160657942543  6.0000000000000009
 29.1980180536030289 78.7245114987865406  6.0000000000000009
 21.8450828489611197 85.7273069317788412  6.0000000000000009
 44.9543077778356661 21.6517287198993778  6.0000000000000009
 -12.8187545443507407 34.6069002709350997  6.0000000000000009
 50.9066838958791195 72.0718558374438487  6.0000000000000009
 43.5537486912372174 79.0746512704361635  6.0000000000000009
 36.2008134865953011 86.0774467034284356  6.0000000000000009
 28.8478782819534096 93.0802421364207504  6.0000000000000009
 -20.5218295206422603 55.9654263415615816  6.0000000000000009
 43.2036089195875945 93.4303819080703590  6.0000000000000009
 66.3128338484621764 29.3548036961908991  6.0000000000000009
  1.8736814290130590  6.0973626634645823  7.6484380999944843
  8.8764768620053509 13.4502978681064924  7.6484380999944843
  1.5235416573634435 20.4530933010987823  7.6484380999944843
 -5.8293935472784630 27.4558887340910758  7.6484380999944843
 15.8792722949976444 20.8032330727483981  7.6484380999944843
  8.5263370903557369 27.8060285057406915  7.6484380999944843
  1.1734018857138278 34.8088239387329779  7.6484380999944843
 -6.1795333189280814 41.8116193717252855  7.6484380999944843
 -13.5324685235699924 48.8144148047175790  7.6484380999944843
 30.2350029326318399 21.1533728443980067  7.6484380999944843
 22.8820677279899343 28.1561682773903001  7.6484380999944843
 15.5291325233480286 35.1589637103825936  7.6484380999944843
  8.1761973187061194 42.1617591433748871  7.6484380999944843
  0.8232621140642067 49.1645545763671876  7.6484380999944843
 -6.5296730905776936 56.1673500093594740  7.6484380999944843
 -13.8826082952196117 63.1701454423517816  7.6484380999944843
 -21.2355434998615138 70.1729408753440538  7.6484380999944843
 37.2377983656241440 28.5063080490399159  7.6484380999944843
 29.8848631609822277 35.5091034820322093  7.6484380999944843
 22.5319279563403185 42.5118989150245028  7.6484380999944843
 15.1789927516984111 49.5146943480168034  7.6484380999944843
  7.8260575470565108 56.5174897810090755  7.6484380999944843
  0.4731223424145981 63.5202852140013903  7.6484380999944843
 -6.8798128622273182 70.5230806469936766  7.6484380999944843
 -14.2327480668692203 77.5258760799859772  7.6484380999944843
 51.5935290032583467 28.8564478206895352  7.6484380999944843
 44.2405937986164233 35.8592432536818251  7.6484380999944843
 36.8876585939745212 42.8620386866741114  7.6484380999944843
 29.5347233893326120 49.8648341196664120  7.6484380999944843
 22.1817881846907099 56.8676295526587126  7.6484380999944843
 14.8288529800487865 63.8704249856509989  7.6484380999944843
  7.4759177754068915 70.8732204186432853  7.6484380999944843
  0.1229825707649788 77.8760158516356000  7.6484380999944843
 23.2322074996395393 13.8004376397560957  7.6484380999944843
 58.5963244362506330 36.2093830253314337  7.6484380999944843
 51.2433892316087025 43.2121784583237272  7.6484380999944843
 43.8904540269668075 50.2149738913160206  7.6484380999944843
 36.5375188223248983 57.2177693243083070  7.6484380999944843
 29.1845836176830069 64.2205647573006217  7.6484380999944843
 21.8316484130410977 71.2233601902929081  7.6484380999944843
 14.4787132083991956 78.2261556232851945  7.6484380999944843
  7.1257780037572545 85.2289510562774808  7.6484380999944843
 -5.4792537756288437 13.1001580964568838  7.6484380999944843
 58.2461846646010173 50.5651136629656364  7.6484380999944843
 50.8932494599591010 57.5679090959579369  7.6484380999944843
 43.5403142553171918 64.5707045289502304  7.6484380999944843
 36.1873790506752897 71.5734999619425309  7.6484380999944843
 28.8344438460333805 78.5762953949348173  7.6484380999944843
 21.4815086413914749 85.5790908279270894  7.6484380999944843
 44.5907335702660248 21.5035126160476437  7.6484380999944843
 -13.1823287519203678 34.4586841670833763  7.6484380999944843
 50.5431096883094781 71.9236397335921254  7.6484380999944843
 43.1901744836675761 78.9264351665844401  7.6484380999944843
 35.8372392790256669 85.9292305995767123  7.6484380999944843
 28.4843040743837612 92.9320260325690271  7.6484380999944843
 -20.8854037282119087 55.8172102377098511  7.6484380999944843
 42.8400347120179674 93.2821658042186357  7.6484380999944843
 65.9492596408925209 29.2065875923391474  7.6484380999944843
 67.3087504118512072 37.5400817762326966 18.9104073287120826
  3.2331721999717296 14.4308568473581307 18.9104073287120826
 -4.1197630046701761 21.4336522803504188 18.9104073287120826
 -11.4726982093120853 28.4364477133427158 18.9104073287120826
 10.2359676329640195 21.7837920520000345 18.9104073287120826
  2.8830324283221120 28.7865874849923280 18.9104073287120826
 -4.4699027763197918 35.7893829179846179 18.9104073287120826
 -11.8228379809617010 42.7921783509769114 18.9104073287120826
 -19.1757731856036102 49.7949737839692119 18.9104073287120826
 24.5916982705982150 22.1339318236496467 18.9104073287120826
 17.2387630659563129 29.1367272566419402 18.9104073287120826
  9.8858278613144002 36.1395226896342336 18.9104073287120826
  2.5328926566724981 43.1423181226265271 18.9104073287120826
 -4.8200425479694129 50.1451135556188206 18.9104073287120826
 -12.1729777526113239 57.1479089886111211 18.9104073287120826
 -19.5259129572532402 64.1507044216034359 18.9104073287120826
 -26.8788481618951351 71.1534998545957080 18.9104073287120826
 31.5944937035905120 29.4868670282915488 18.9104073287120826
 24.2415584989486028 36.4896624612838423 18.9104073287120826
 16.8886232943066901 43.4924578942761428 18.9104073287120826
  9.5356880896647844 50.4952533272684434 18.9104073287120826
  2.1827528850228752 57.4980487602607298 18.9104073287120826
 -5.1701823196190375 64.5008441932530445 18.9104073287120826
 -12.5231175242609378 71.5036396262453025 18.9104073287120826
 10.5861074046136281  7.4280614143658292 18.9104073287120826
 45.9502243412247182 29.8370067999411646 18.9104073287120826
 38.5972891365828090 36.8398022329334651 18.9104073287120826
 31.2443539319408998 43.8425976659257515 18.9104073287120826
 23.8914187272989906 50.8453930989180591 18.9104073287120826
 16.5384835226570850 57.8481885319103455 18.9104073287120826
  9.1855483180151722 64.8509839649026532 18.9104073287120826
  1.8326131133732630 71.8537793978949253 18.9104073287120826
 -5.5203220912686319 78.8565748308872116 18.9104073287120826
 17.5889028376059215 14.7809966190077358 18.9104073287120826
 52.9530197742170046 37.1899420045830738 18.9104073287120826
 45.6000845695750812 44.1927374375753601 18.9104073287120826
 38.2471493649331791 51.1955328705676607 18.9104073287120826
 30.8942141602912841 58.1983283035599612 18.9104073287120826
 23.5412789556493749 65.2011237365522618 18.9104073287120826
 16.1883437510074479 72.2039191695445481 18.9104073287120826
  8.8354085463655387 79.2067146025368345 18.9104073287120826
 31.9446334752401242 15.1311363906573568 18.9104073287120826
 59.9558152072092980 44.5428772092249829 18.9104073287120826
 52.6028800025673817 51.5456726422172693 18.9104073287120826
 45.2499447979254867 58.5484680752095699 18.9104073287120826
 37.8970095932835704 65.5512635082018846 18.9104073287120826
 30.5440743886416755 72.5540589411941568 18.9104073287120826
 23.1911391839997556 79.5568543741864573 18.9104073287120826
 15.8382039793578357 86.5596498071787579 18.9104073287120826
 38.9474289082324105 22.4840715952992802 18.9104073287120826
 52.2527402309177731 65.9014032798514791 18.9104073287120826
 44.8998050262758710 72.9041987128437654 18.9104073287120826
 37.5468698216339618 79.9069941458360518 18.9104073287120826
 30.1939346169920348 86.9097895788283523 18.9104073287120826
 22.8409994123501328 93.9125850118206529 18.9104073287120826
 44.5496652546262411 87.2599293504779610 18.9104073287120826
 37.1967300499843176 94.2627247834702473 18.9104073287120826
 60.3059549788588782 30.1871465715908016 18.9104073287120826
 -3.1211241998822121  7.5407088816723631 20.1369658172089991
  3.8816712331100796 14.8936440863142714 20.1369658172089991
 -3.4712639715318243 21.8964395193065577 20.1369658172089991
 -10.8241991761737353 28.8992349522988548 20.1369658172089991
 10.8844666661023766 22.2465792909561841 20.1369658172089991
  3.5315314614604656 29.2493747239484705 20.1369658172089991
 -3.8214037431814418 36.2521701569407639 20.1369658172089991
 -11.1743389478233510 43.2549655899330574 20.1369658172089991
 -18.5272741524652602 50.2577610229253509 20.1369658172089991
 25.2401973037365615 22.5967190626057821 20.1369658172089991
 17.8872620990946665 29.5995144955980827 20.1369658172089991
 10.5343268944527573 36.6023099285903868 20.1369658172089991
  3.1813916898108445 43.6051053615826802 20.1369658172089991
 -4.1715435148310611 50.6079007945749666 20.1369658172089991
 -11.5244787194729597 57.6106962275672601 20.1369658172089991
 -18.8774139241148760 64.6134916605595606 20.1369658172089991
 -26.2303491287567780 71.6162870935518470 20.1369658172089991
 32.2429927367288514 29.9496542672476807 20.1369658172089991
 24.8900575320869528 36.9524497002399883 20.1369658172089991
 17.5371223274450472 43.9552451332322818 20.1369658172089991
 10.1841871228031415 50.9580405662245823 20.1369658172089991
  2.8312519181612252 57.9608359992168829 20.1369658172089991
 -4.5216832864806733 64.9636314322091692 20.1369658172089991
 -11.8746184911225825 71.9664268652014556 20.1369658172089991
 11.2346064377519710  7.8908486533219797 20.1369658172089991
 46.5987233743630682 30.2997940388973035 20.1369658172089991
 39.2457881697211519 37.3025894718895970 20.1369658172089991
 31.8928529650792427 44.3053849048818904 20.1369658172089991
 24.5399177604373477 51.3081803378741910 20.1369658172089991
 17.1869825557954385 58.3109757708664844 20.1369658172089991
  9.8340473511535151 65.3137712038587921 20.1369658172089991
  2.4811121465116237 72.3165666368510642 20.1369658172089991
 -4.8718230581302890 79.3193620698433648 20.1369658172089991
 18.2374018707442680 15.2437838579638925 20.1369658172089991
 53.6015188073553546 37.6527292435392127 20.1369658172089991
 46.2485836027134525 44.6555246765315133 20.1369658172089991
 38.8956483980715291 51.6583201095238138 20.1369658172089991
 31.5427131934296270 58.6611155425160931 20.1369658172089991
 24.1897779887877356 65.6639109755084007 20.1369658172089991
 16.8368427841458157 72.6667064085006871 20.1369658172089991
  9.4839075795039101 79.6695018414929876 20.1369658172089991
 32.5931325083784600 15.5939236296134922 20.1369658172089991
 60.6043142403476551 45.0056644481811219 20.1369658172089991
 53.2513790357057530 52.0084598811734153 20.1369658172089991
 45.8984438310638367 59.0112553141657088 20.1369658172089991
 38.5455086264219275 66.0140507471580094 20.1369658172089991
 31.1925734217800077 73.0168461801502815 20.1369658172089991
 23.8396382171381163 80.0196416131425963 20.1369658172089991
 16.4867030124961964 87.0224370461348968 20.1369658172089991
 39.5959279413707605 22.9468588342554192 20.1369658172089991
 52.9012392640561302 66.3641905188076180 20.1369658172089991
 45.5483040594142068 73.3669859517999328 20.1369658172089991
 38.1953688547723118 80.3697813847922049 20.1369658172089991
 30.8424336501303955 87.3725768177845055 20.1369658172089991
 53.9516585790049632 23.2969986059050456 20.1369658172089991
 45.1981642877645982 87.7227165894340999 20.1369658172089991
 37.8452290831226819 94.7255120224264004 20.1369658172089991
 60.9544540119972424 30.6499338105469370 20.1369658172089991
 67.1307501553818327 37.6213931087688209 21.3724910513971231
  3.0551719435023452 14.5121681798942603 21.3724910513971231
 -4.2977632611395631 21.5149636128865502 21.3724910513971231
 -11.6506984657814741 28.5177590458788472 21.3724910513971231
 10.0579673764946378 21.8651033845361660 21.3724910513971231
  2.7050321718527304 28.8678988175284559 21.3724910513971231
 -4.6479030327891824 35.8706942505207493 21.3724910513971231
 -12.0008382374310916 42.8734896835130499 21.3724910513971231
 -19.3537734420729954 49.8762851165053291 21.3724910513971231
 24.4136980141288298 22.2152431561857711 21.3724910513971231
 17.0607628094869277 29.2180385891780716 21.3724910513971231
  9.7078276048450167 36.2208340221703722 21.3724910513971231
  2.3548924002031093 43.2236294551626656 21.3724910513971231
 -4.9980428044387963 50.2264248881549520 21.3724910513971231
 -12.3509780090807038 57.2292203211472454 21.3724910513971231
 -19.7039132137226183 64.2320157541395531 21.3724910513971231
 -27.0568484183645062 71.2348111871318252 21.3724910513971231
 31.4164934471211197 29.5681783608276731 21.3724910513971231
 24.0635582424792176 36.5709737938199808 21.3724910513971231
 16.7106230378373048 43.5737692268122743 21.3724910513971231
  9.3576878331954028 50.5765646598045606 21.3724910513971231
  2.0047526285534865 57.5793600927968612 21.3724910513971231
 -5.3481825760884121 64.5821555257891475 21.3724910513971231
 -12.7011177807303248 71.5849509587814481 21.3724910513971231
 10.4081071481442393  7.5093727469019669 21.3724910513971231
 45.7722240847553223 29.9183181324772960 21.3724910513971231
 38.4192888801134202 36.9211135654695966 21.3724910513971231
 31.0663536754715039 43.9239089984618829 21.3724910513971231
 23.7134184708296232 50.9267044314541764 21.3724910513971231
 16.3604832661877175 57.9294998644464769 21.3724910513971231
  9.0075480615457835 64.9322952974387704 21.3724910513971231
  1.6546128569038778 71.9350907304310567 21.3724910513971231
 -5.6983223477380278 78.9378861634233573 21.3724910513971231
 17.4109025811365328 14.8623079515438725 21.3724910513971231
 52.7750195177476158 37.2712533371191981 21.3724910513971231
 45.4220843131057137 44.2740487701115057 21.3724910513971231
 38.0691491084638045 51.2768442031037921 21.3724910513971231
 30.7162139038219095 58.2796396360960927 21.3724910513971231
 23.3632786991799897 65.2824350690883790 21.3724910513971231
 16.0103434945380734 72.2852305020806796 21.3724910513971231
  8.6574082898961677 79.2880259350729517 21.3724910513971231
 31.7666332187707248 15.2124477231934936 21.3724910513971231
 59.7778149507399164 44.6241885417611144 21.3724910513971231
 52.4248797460980143 51.6269839747534007 21.3724910513971231
 45.0719445414561051 58.6297794077456942 21.3724910513971231
 37.7190093368141959 65.6325748407380019 21.3724910513971231
 30.3660741321723009 72.6353702737303024 21.3724910513971231
 23.0131389275303810 79.6381657067225888 21.3724910513971231
 15.6602037228884647 86.6409611397148751 21.3724910513971231
 38.7694286517630218 22.5653829278354010 21.3724910513971231
 52.0747399744483914 65.9827146123876247 21.3724910513971231
 44.7218047698064964 72.9855100453799110 21.3724910513971231
 37.3688695651645730 79.9883054783721974 21.3724910513971231
 30.0159343605226638 86.9911009113644695 21.3724910513971231
 53.1251592893972173 22.9155226994850274 21.3724910513971231
 44.3716649981568452 87.3412406830140924 21.3724910513971231
 37.0187297935149502 94.3440361160063787 21.3724910513971231
 60.1279547223895179 30.2684579041269259 21.3724910513971231
 -3.2613348004657974  7.6337606692503837 22.6613989165339866
  3.7414606325264961 14.9866958738922893 22.6613989165339866
 -3.6114745721154140 21.9894913068845881 22.6613989165339866
 -10.9644097767573196 28.9922867398768744 22.6613989165339866
 10.7442560655187869 22.3396310785342038 22.6613989165339866
  3.3913208608768759 29.3424265115264902 22.6613989165339866
 -3.9616143437650315 36.3452219445187836 22.6613989165339866
 -11.3145495484069301 43.3480173775110700 22.6613989165339866
 -18.6674847530488464 50.3508128105033634 22.6613989165339866
 25.0999867031529824 22.6897708501838054 22.6613989165339866
 17.7470514985110803 29.6925662831761024 22.6613989165339866
 10.3941162938691694 36.6953617161684065 22.6613989165339866
  3.0411810892272637 43.6981571491606857 22.6613989165339866
 -4.3117541154146508 50.7009525821529934 22.6613989165339866
 -11.6646893200565476 57.7037480151452726 22.6613989165339866
 -19.0176245246984692 64.7065434481375945 22.6613989165339866
 -26.3705597293403606 71.7093388811298666 22.6613989165339866
 32.1027821361452794 30.0427060548257145 22.6613989165339866
 24.7498469315033702 37.0455014878180080 22.6613989165339866
 17.3969117268614610 44.0482969208103015 22.6613989165339866
 10.0439765222195625 51.0510923538025949 22.6613989165339866
  2.6910413175776462 58.0538877867948955 22.6613989165339866
 -4.6618938870642523 65.0566832197872031 22.6613989165339866
 -12.0148290917061651 72.0594786527794895 22.6613989165339866
 11.0943958371683937  7.9839004409000029 22.6613989165339866
 46.4585127737794750 30.3928458264753232 22.6613989165339866
 39.1055775691375729 37.3956412594676237 22.6613989165339866
 31.7526423644956530 44.3984366924599101 22.6613989165339866
 24.3997071598537545 51.4012321254522107 22.6613989165339866
 17.0467719552118595 58.4040275584445041 22.6613989165339866
  9.6938367505699254 65.4068229914367976 22.6613989165339866
  2.3409015459280305 72.4096184244290839 22.6613989165339866
 -5.0120336587138716 79.4124138574213987 22.6613989165339866
 18.0971912701606747 15.3368356455419068 22.6613989165339866
 53.4613082067717613 37.7457810311172253 22.6613989165339866
 46.1083730021298734 44.7485764641095471 22.6613989165339866
 38.7554377974879500 51.7513718971018335 22.6613989165339866
 31.4025025928460444 58.7541673300941198 22.6613989165339866
 24.0495673882041388 65.7569627630864488 22.6613989165339866
 16.6966321835622438 72.7597581960787352 22.6613989165339866
  9.3436969789203239 79.7625536290710073 22.6613989165339866
 32.4529219077948952 15.6869754171915350 22.6613989165339866
 60.4641036397640619 45.0987162357591416 22.6613989165339866
 53.1111684351221456 52.1015116687514279 22.6613989165339866
 45.7582332304802577 59.1043071017437285 22.6613989165339866
 38.4052980258383485 66.1071025347360290 22.6613989165339866
 31.0523628211964429 73.1098979677283154 22.6613989165339866
 23.6994276165545266 80.1126934007206160 22.6613989165339866
 16.3464924119126032 87.1154888337128881 22.6613989165339866
 39.4557173407871744 23.0399106218334353 22.6613989165339866
 52.7610286634725298 66.4572423063856235 22.6613989165339866
 45.4080934588306278 73.4600377393779240 22.6613989165339866
 38.0551582541887115 80.4628331723702104 22.6613989165339866
 30.7022230495468094 87.4656286053625251 22.6613989165339866
 53.8114479784213700 23.3900503934830368 22.6613989165339866
 45.0579536871810191 87.8157683770121196 22.6613989165339866
 37.7050184825391028 94.8185638100044343 22.6613989165339866
 60.8142434114136705 30.7429855981249354 22.6613989165339866
 66.9557675227046616 37.8540659724274988 23.9122849291930528
  2.8801893108251759 14.7448410435529276 23.9122849291930528
 -4.4727458938167315 21.7476364765452175 23.9122849291930528
 -11.8256810984586416 28.7504319095375109 23.9122849291930528
  9.8829847438174667 22.0977762481948332 23.9122849291930528
  2.5300495391755611 29.1005716811871267 23.9122849291930528
 -4.8228856654663463 36.1033671141794201 23.9122849291930528
 -12.1758208701082467 43.1061625471717065 23.9122849291930528
 -19.5287560747501630 50.1089579801640141 23.9122849291930528
 24.2387153814516552 22.4479160198444347 23.9122849291930528
 16.8857801768097531 29.4507114528367353 23.9122849291930528
  9.5328449721678563 36.4535068858290288 23.9122849291930528
  2.1799097675259418 43.4563023188213222 23.9122849291930528
 -5.1730254371159674 50.4590977518136299 23.9122849291930528
 -12.5259606417578730 57.4618931848059233 23.9122849291930528
 -19.8788958463997858 64.4646886177982168 23.9122849291930528
 -27.2318310510416808 71.4674840507905031 23.9122849291930528
 31.2415108144439593 29.8008512244863510 23.9122849291930528
 23.8885756098020465 36.8036466574786374 23.9122849291930528
 16.5356404051601373 43.8064420904709380 23.9122849291930528
  9.1827052005182317 50.8092375234632385 23.9122849291930528
  1.8297699958763296 57.8120329564555178 23.9122849291930528
 -5.5231652087655796 64.8148283894478254 23.9122849291930528
 -12.8761004134074923 71.8176238224401118 23.9122849291930528
 10.2331245154670736  7.7420456105606288 23.9122849291930528
 45.5972414520781584 30.1509909961359597 23.9122849291930528
 38.2443062474362492 37.1537864291282531 23.9122849291930528
 30.8913710427943471 44.1565818621205608 23.9122849291930528
 23.5384358381524343 51.1593772951128472 23.9122849291930528
 16.1855006335105465 58.1621727281051335 23.9122849291930528
  8.8325654288686266 65.1649681610974341 23.9122849291930528
  1.4796302242267032 72.1677635940897346 23.9122849291930528
 -5.8733049804151882 79.1705590270820210 23.9122849291930528
 17.2359199484593688 15.0949808152025344 23.9122849291930528
 52.6000368850704447 37.5039262007778618 23.9122849291930528
 45.2471016804285284 44.5067216337701694 23.9122849291930528
 37.8941664757866192 51.5095170667624558 23.9122849291930528
 30.5412312711447171 58.5123124997547421 23.9122849291930528
 23.1882960665028186 65.5151079327470427 23.9122849291930528
 15.8353608618609094 72.5179033657393575 23.9122849291930528
  8.4824256572190038 79.5206987987316296 23.9122849291930528
 31.5916505860935573 15.4451205868521484 23.9122849291930528
 59.6028323180627524 44.8568614054197923 23.9122849291930528
 52.2498971134208290 51.8596568384120644 23.9122849291930528
 44.8969619087789269 58.8624522714043579 23.9122849291930528
 37.5440267041370248 65.8652477043966513 23.9122849291930528
 30.1910914994951156 72.8680431373889519 23.9122849291930528
 22.8381562948532100 79.8708385703812382 23.9122849291930528
 15.4852210902112972 86.8736340033735388 23.9122849291930528
 38.5944460190858436 22.7980557914940718 23.9122849291930528
 51.8997573417712061 66.2153874760462742 23.9122849291930528
 44.5468221371292969 73.2181829090385605 23.9122849291930528
 37.1938869324873878 80.2209783420308753 23.9122849291930528
 29.8409517278454928 87.2237737750231474 23.9122849291930528
 52.9501766567200534 23.1481955631436875 23.9122849291930528
 44.1966823654796883 87.5739135466727703 23.9122849291930528
 36.8437471608377791 94.5767089796650424 23.9122849291930528
 59.9529720897123468 30.5011307677855861 23.9122849291930528
 66.8180274703913284 36.4293435632769658 24.2210765872877118
  2.7424492585118596 13.3201186344024034 24.2210765872877118
 -4.6104859461300478 20.3229140673946986 24.2210765872877118
 59.1149524940998248 57.7878696339034619 24.2210765872877118
  9.7452446915041548 20.6730538390443108 24.2210765872877118
  2.3923094868622439 27.6758492720366078 24.2210765872877118
 -4.9606257177796600 34.6786447050288942 24.2210765872877118
 -12.3135609224215727 41.6814401380211876 24.2210765872877118
 -19.6664961270634784 48.6842355710134811 24.2210765872877118
 24.1009753291383468 21.0231936106939195 24.2210765872877118
 16.7480401244964447 28.0259890436862165 24.2210765872877118
  9.3951049198545338 35.0287844766785170 24.2210765872877118
  2.0421697152126281 42.0315799096708105 24.2210765872877118
 -5.3107654894292775 49.0343753426630968 24.2210765872877118
 -12.6637006940711867 56.0371707756553832 24.2210765872877118
 -20.0166358987131012 63.0399662086476908 24.2210765872877118
 -27.3695711033549962 70.0427616416399701 24.2210765872877118
 31.1037707621306438 28.3761288153358251 24.2210765872877118
 23.7508355574887382 35.3789242483281328 24.2210765872877118
 16.3979003528468326 42.3817196813204191 24.2210765872877118
  9.0449651482049234 49.3845151143127126 24.2210765872877118
  1.6920299435630213 56.3873105473050060 24.2210765872877118
 -5.6609052610788950 63.3901059802973066 24.2210765872877118
 -13.0138404657208024 70.3929014132895929 24.2210765872877118
 10.0953844631537599  6.3173232014101135 24.2210765872877118
 45.4595013997648536 28.7262685869854408 24.2210765872877118
 38.1065661951229302 35.7290640199777414 24.2210765872877118
 30.7536309904810352 42.7318594529700277 24.2210765872877118
 23.4006957858391260 49.7346548859623141 24.2210765872877118
 16.0477605811972204 56.7374503189546147 24.2210765872877118
  8.6948253765553041 63.7402457519469152 24.2210765872877118
  1.3418901719133984 70.7430411849392016 24.2210765872877118
 -6.0110450327285037 77.7458366179315021 24.2210765872877118
 17.0981798961460498 13.6702584060520174 24.2210765872877118
 52.4622968327571186 36.0792037916273429 24.2210765872877118
 45.1093616281152308 43.0819992246196506 24.2210765872877118
 37.7564264234733145 50.0847946576119369 24.2210765872877118
 30.4034912188314195 57.0875900906042375 24.2210765872877118
 23.0505560141895032 64.0903855235965239 24.2210765872877118
 15.6976208095475975 71.0931809565888102 24.2210765872877118
  8.3446856049056777 78.0959763895811108 24.2210765872877118
 31.4539105337802489 14.0203981777016402 24.2210765872877118
 59.4650922657494334 43.4321389962692592 24.2210765872877118
 52.1121570611075100 50.4349344292615456 24.2210765872877118
 44.7592218564656150 57.4377298622538532 24.2210765872877118
 37.4062866518237058 64.4405252952461467 24.2210765872877118
 30.0533514471818037 71.4433207282384330 24.2210765872877118
 22.7004162425398910 78.4461161612307194 24.2210765872877118
 15.3474810378979782 85.4489115942230342 24.2210765872877118
 38.4567059667725388 21.3733333823435458 24.2210765872877118
 51.7620172894579014 64.7906650668957553 24.2210765872877118
 44.4090820848160064 71.7934604998880417 24.2210765872877118
 37.0561468801740830 78.7962559328803422 24.2210765872877118
 29.7032116755321880 85.7990513658726286 24.2210765872877118
 22.3502764708902717 92.8018467988649292 24.2210765872877118
 44.0589423131663693 86.1491911375222230 24.2210765872877118
 36.7060071085244672 93.1519865705145378 24.2210765872877118
 59.8152320373990136 29.0764083586350672 24.2210765872877118
 67.8936822027062732 37.8166009411348227 18.0890389682395849
  3.8181039908267973 14.7073760122602550 18.0890389682395849
 -3.5348312138151146 21.7101714452525485 18.0890389682395849
 -10.8877664184570175 28.7129668782448384 18.0890389682395849
 10.8208994238190925 22.0603112169021713 18.0890389682395849
  3.4679642191771762 29.0631066498944506 18.0890389682395849
 -3.8849709854647294 36.0659020828867440 18.0890389682395849
 -11.2379061901066386 43.0686975158790446 18.0890389682395849
 -18.5908413947485442 50.0714929488713381 18.0890389682395849
 25.1766300614532810 22.4104509885517729 18.0890389682395849
 17.8236948568113824 29.4132464215440699 18.0890389682395849
 10.4707596521694732 36.4160418545363598 18.0890389682395849
  3.1178244475275640 43.4188372875286532 18.0890389682395849
 -4.2351107571143469 50.4216327205209467 18.0890389682395849
 -11.5880459617562526 57.4244281535132544 18.0890389682395849
 -18.9409811663981635 64.4272235865055336 18.0890389682395849
 -26.2939163710400692 71.4300190194978484 18.0890389682395849
 32.1794254944455673 29.7633861931936750 18.0890389682395849
 24.8264902898036688 36.7661816261859755 18.0890389682395849
 17.4735550851617596 43.7689770591782690 18.0890389682395849
 10.1206198805198540 50.7717724921705624 18.0890389682395849
  2.7676846758779483 57.7745679251628630 18.0890389682395849
 -4.5852505287639573 64.7773633581551422 18.0890389682395849
 -11.9381857334058719 71.7801587911474570 18.0890389682395849
 11.1710391954686834  7.7045805792679758 18.0890389682395849
 46.5351561320797842 30.1135259648432907 18.0890389682395849
 39.1822209274378750 37.1163213978355913 18.0890389682395849
 31.8292857227959587 44.1191168308278776 18.0890389682395849
 24.4763505181540637 51.1219122638201782 18.0890389682395849
 17.1234153135121652 58.1247076968124432 18.0890389682395849
  9.7704801088702382 65.1275031298047509 18.0890389682395849
  2.4175449042283361 72.1302985627970514 18.0890389682395849
 -4.9353903004135766 79.1330939957893520 18.0890389682395849
 18.1738346284609804 15.0575157839098850 18.0890389682395849
 53.5379515650720705 37.4664611694851999 18.0890389682395849
 46.1850163604301542 44.4692566024775005 18.0890389682395849
 38.8320811557882521 51.4720520354697868 18.0890389682395849
 31.4791459511463358 58.4748474684620874 18.0890389682395849
 24.1262107465044338 65.4776429014543737 18.0890389682395849
 16.7732755418625281 72.4804383344466601 18.0890389682395849
  9.4203403372206154 79.4832337674389606 18.0890389682395849
 32.5295652660951689 15.4076555555594847 18.0890389682395849
 60.5407469980643853 44.8193963741271233 18.0890389682395849
 53.1878117934224406 51.8221918071193954 18.0890389682395849
 45.8348765887805527 58.8249872401117102 18.0890389682395849
 38.4819413841386435 65.8277826731039966 18.0890389682395849
 31.1290061794967343 72.8305781060962829 18.0890389682395849
 23.7760709748548322 79.8333735390885835 18.0890389682395849
 16.4231357702129301 86.8361689720808698 18.0890389682395849
 39.5323606990874765 22.7605907602014135 18.0890389682395849
 52.8376720217728391 66.1779224447535910 18.0890389682395849
 45.4847368171309228 73.1807178777458915 18.0890389682395849
 38.1318016124890278 80.1835133107381921 18.0890389682395849
 30.7788664078471115 87.1863087437304927 18.0890389682395849
 53.8880913367216650 23.1107305318509901 18.0890389682395849
 45.1345970454812999 87.5364485153800729 18.0890389682395849
 37.7816618408393907 94.5392439483723876 18.0890389682395849
 60.8908867697139584 30.4636657364929171 18.0890389682395849
 67.2157742570568502 36.4983381287043755 18.9240230873953728
  3.1401960451773858 13.3891131998298185 18.9240230873953728
 -4.2127391594645207 20.3919086328221084 18.9240230873953728
 -11.5656743641064299 27.3947040658144090 18.9240230873953728
 10.1429914781696731 20.7420484044717242 18.9240230873953728
  2.7900562735277727 27.7448438374640176 18.9240230873953728
 -4.5628789311141364 34.7476392704563111 18.9240230873953728
 -11.9158141357560439 41.7504347034486045 18.9240230873953728
 -19.2687493403979531 48.7532301364408980 18.9240230873953728
 24.4987221158038686 21.0921881761213399 18.9240230873953728
 17.1457869111619701 28.0949836091136333 18.9240230873953728
  9.7928517065200538 35.0977790421059410 18.9240230873953728
  2.4399165018781463 42.1005744750982274 18.9240230873953728
 -4.9130187027637646 49.1033699080905208 18.9240230873953728
 -12.2659539074056543 56.1061653410828001 18.9240230873953728
 -19.6188891120475688 63.1089607740751006 18.9240230873953728
 -26.9718243166894744 70.1117562070673870 18.9240230873953728
 31.5015175487961727 28.4451233807632420 18.9240230873953728
 24.1485823441542529 35.4479188137555354 18.9240230873953728
 16.7956471395123366 42.4507142467478360 18.9240230873953728
  9.4427119348704380 49.4535096797401366 18.9240230873953728
  2.0897767302285359 56.4563051127324158 18.9240230873953728
 -5.2631584744133697 63.4591005457247093 18.9240230873953728
 -12.6160936790552825 70.4618959787170098 18.9240230873953728
 10.4931312498192764  6.3863177668375268 18.9240230873953728
 45.8572481864303754 28.7952631524128648 18.9240230873953728
 38.5043129817884591 35.7980585854051512 18.9240230873953728
 31.1513777771465499 42.8008540183974517 18.9240230873953728
 23.7984425725046371 49.8036494513897452 18.9240230873953728
 16.4455073678627457 56.8064448843820315 18.9240230873953728
  9.0925721632208258 63.8092403173743250 18.9240230873953728
  1.7396369585789273 70.8120357503666185 18.9240230873953728
 -5.6132982460629783 77.8148311833589190 18.9240230873953728
 17.4959266828115645 13.7392529714794307 18.9240230873953728
 52.8600436194226475 36.1481983570547598 18.9240230873953728
 45.5071084147807454 43.1509937900470604 18.9240230873953728
 38.1541732101388504 50.1537892230393538 18.9240230873953728
 30.8012380054969412 57.1565846560316473 18.9240230873953728
 23.4483028008550392 64.1593800890239407 18.9240230873953728
 16.0953675962131300 71.1621755220162413 18.9240230873953728
  8.7424323915712137 78.1649709550085419 18.9240230873953728
 31.8516573204457742 14.0893927431290589 18.9240230873953728
 59.8628390524149694 43.5011335616966761 18.9240230873953728
 52.5099038477730389 50.5039289946889625 18.9240230873953728
 45.1569686431311510 57.5067244276812630 18.9240230873953728
 37.8040334384892418 64.5095198606735494 18.9240230873953728
 30.4510982338473219 71.5123152936658641 18.9240230873953728
 23.0981630292054270 78.5151107266581505 18.9240230873953728
 15.7452278245635142 85.5179061596504511 18.9240230873953728
 38.8544527534380677 21.4423279477709698 18.9240230873953728
 52.1597640761234373 64.8596596323231580 18.9240230873953728
 44.8068288714815282 71.8624550653154586 18.9240230873953728
 37.4538936668396190 78.8652504983077733 18.9240230873953728
 30.1009584621977133 85.8680459313000455 18.9240230873953728
 22.7480232575557793 92.8708413642923603 18.9240230873953728
 44.4566890998319053 86.2181857029496825 18.9240230873953728
 37.1037538951899961 93.2209811359419689 18.9240230873953728
 60.2129788240645709 29.1454029240624948 18.9240230873953728
 66.3639300537406314 37.9787912972353467 18.8159890150975393
  2.2883518418611573 14.8695663683607862 18.8159890150975393
 -5.0645833627807502 21.8723618013530796 18.8159890150975393
 58.6608550774491206 59.3373173678618429 18.8159890150975393
  9.2911472748534472 22.2225015730026882 18.8159890150975393
  1.9382120702115415 29.2252970059949817 18.8159890150975393
 -5.4147231344303624 36.2280924389872752 18.8159890150975393
 -12.7676583390722698 43.2308878719795615 18.8159890150975393
 -20.1205935437141790 50.2336833049718692 18.8159890150975393
 23.6468779124876463 22.5726413446523040 18.8159890150975393
 16.2939427078457371 29.5754367776445974 18.8159890150975393
  8.9410075032038439 36.5782322106368980 18.8159890150975393
  1.5880722985619293 43.5810276436291986 18.8159890150975393
 -5.7648629060799905 50.5838230766214849 18.8159890150975393
 -13.1177981107218802 57.5866185096137571 18.8159890150975393
 -20.4707333153637947 64.5894139426060576 18.8159890150975393
 -27.8236685200057039 71.5922093755983582 18.8159890150975393
 30.6496733454799397 29.9255765492942061 18.8159890150975393
 23.2967381408380376 36.9283719822865137 18.8159890150975393
 15.9438029361961320 43.9311674152788143 18.8159890150975393
  8.5908677315542228 50.9339628482710935 18.8159890150975393
  1.2379325269123065 57.9367582812633941 18.8159890150975393
 -6.1150026777295814 64.9395537142556663 18.8159890150975393
 -13.4679378823714924 71.9423491472479668 18.8159890150975393
  9.6412870465030522  7.8667709353685016 18.8159890150975393
 45.0054039831141424 30.2757163209438254 18.8159890150975393
 37.6524687784722474 37.2785117539361295 18.8159890150975393
 30.2995335738303382 44.2813071869284158 18.8159890150975393
 22.9465983691884148 51.2841026199207022 18.8159890150975393
 15.5936631645465020 58.2868980529130098 18.8159890150975393
  8.2407279599046070 65.2896934859053033 18.8159890150975393
  0.8877927552627050 72.2924889188975897 18.8159890150975393
 -6.4651424493792042 79.2952843518898902 18.8159890150975393
 16.6440824794953457 15.2197061400104054 18.8159890150975393
 52.0081994161064216 37.6286515255857239 18.8159890150975393
 44.6552642114645124 44.6314469585780174 18.8159890150975393
 37.3023290068226032 51.6342423915703179 18.8159890150975393
 29.9493938021807082 58.6370378245626114 18.8159890150975393
 22.5964585975388133 65.6398332575549119 18.8159890150975393
 15.2435233928968827 72.6426286905472125 18.8159890150975393
  7.8905881882549984 79.6454241235394989 18.8159890150975393
 30.9998131171295412 15.5698459116600247 18.8159890150975393
 59.0109948490987364 44.9815867302276615 18.8159890150975393
 51.6580596444568059 51.9843821632199337 18.8159890150975393
 44.3051244398149038 58.9871775962122342 18.8159890150975393
 36.9521892351730159 65.9899730292045348 18.8159890150975393
 29.5992540305310960 72.9927684621968069 18.8159890150975393
 22.2463188258891975 79.9955638951891217 18.8159890150975393
 14.8933836212472777 86.9983593281813938 18.8159890150975393
 38.0026085501218418 22.9227811163019375 18.8159890150975393
 51.3079198728072043 66.3401128008541292 18.8159890150975393
 43.9549846681653023 73.3429082338464298 18.8159890150975393
 36.6020494635234002 80.3457036668387161 18.8159890150975393
 29.2491142588814910 87.3484990998310167 18.8159890150975393
 52.3583391877560373 23.2729208879515426 18.8159890150975393
 43.6048448965156723 87.6986388714806253 18.8159890150975393
 36.2519096918737773 94.7014343044729117 18.8159890150975393
 59.3611346207483379 30.6258560925934518 18.8159890150975393
 -3.0026942203542291  8.6464572461398639 20.0942039427118324
  4.0001012126380662 15.9993924507817695 20.0942039427118324
 -3.3528339920038466 23.0021878837740630 20.0942039427118324
 -10.7057691966457540 30.0049833167663600 20.0942039427118324
 11.0028966456303507 23.3523276554236716 20.0942039427118324
  3.6499614409884433 30.3551230884159722 20.0942039427118324
 -3.7029737636534588 37.3579185214082585 20.0942039427118324
 -11.0559089682953768 44.3607139544005662 20.0942039427118324
 -18.4088441729372789 51.3635093873928525 20.0942039427118324
 25.3586272832645498 23.7024674270732874 20.0942039427118324
 18.0056920786226513 30.7052628600655808 20.0942039427118324
 10.6527568739807457 37.7080582930578885 20.0942039427118324
  3.2998216693388311 44.7108537260501819 20.0942039427118324
 -4.0531135353030763 51.7136491590424612 20.0942039427118324
 -11.4060487399449837 58.7164445920347475 20.0942039427118324
 -18.7589839445868982 65.7192400250270623 20.0942039427118324
 -26.1119191492287968 72.7220354580193344 20.0942039427118324
 32.3614227162568397 31.0554026317151930 20.0942039427118324
 25.0084875116149377 38.0581980647074900 20.0942039427118324
 17.6555523069730356 45.0609934976997835 20.0942039427118324
 10.3026171023311193 52.0637889306920698 20.0942039427118324
  2.9496818976892065 59.0665843636843704 20.0942039427118324
 -4.4032533069526956 66.0693797966766709 20.0942039427118324
 -11.7561885115946048 73.0721752296689715 20.0942039427118324
 11.3530364172799594  8.9965970177894761 20.0942039427118324
 46.7171533538910637 31.4055424033648194 20.0942039427118324
 39.3642181492491403 38.4083378363571057 20.0942039427118324
 32.0112829446072311 45.4111332693493992 20.0942039427118324
 24.6583477399653361 52.4139287023416927 20.0942039427118324
 17.3054125353234305 59.4167241353339790 20.0942039427118324
  9.9524773306815000 66.4195195683262796 20.0942039427118324
  2.5995421260395943 73.4223150013185517 20.0942039427118324
 -4.7533930786022971 80.4251104343108665 20.0942039427118324
 18.3558318502722564 16.3495322224313853 20.0942039427118324
 53.7199487868833288 38.7584776080067144 20.0942039427118324
 46.3670135822414267 45.7612730409990149 20.0942039427118324
 39.0140783775995246 52.7640684739912942 20.0942039427118324
 31.6611431729576083 59.7668639069836019 20.0942039427118324
 24.3082079683156920 66.7696593399759024 20.0942039427118324
 16.9552727636738041 73.7724547729681888 20.0942039427118324
  9.6023375590318842 80.7752502059604893 20.0942039427118324
 32.7115624879064555 16.6996719940809868 20.0942039427118324
 60.7227442198756222 46.1114128126486165 20.0942039427118324
 53.3698090152337130 53.1142082456409099 20.0942039427118324
 46.0168738105918109 60.1170036786332176 20.0942039427118324
 38.6639386059499159 67.1197991116254968 20.0942039427118324
 31.3110034013080032 74.1225945446178116 20.0942039427118324
 23.9580681966661047 81.1253899776100980 20.0942039427118324
 16.6051329920241919 88.1281854106023701 20.0942039427118324
 39.7143579208987489 24.0526071987229138 20.0942039427118324
 53.0196692435841186 67.4699388832751481 20.0942039427118324
 45.6667340389422236 74.4727343162674060 20.0942039427118324
 38.3137988343002860 81.4755297492597066 20.0942039427118324
 30.9608636296583839 88.4783251822519929 20.0942039427118324
 54.0700885585329374 24.4027469703725259 20.0942039427118324
 45.3165942672925794 88.8284649539015874 20.0942039427118324
 37.9636590626506631 95.8312603868939021 20.0942039427118324
 61.0728839915252308 31.7556821750144351 20.0942039427118324
 -2.1084725446091985  7.0850627020142616 20.2114045751024634
  4.8943228883830940 14.4379979066561717 20.2114045751024634
 -2.4586123162588169 21.4407933396484687 20.2114045751024634
 -9.8115475209007244 28.4435887726407621 20.2114045751024634
 11.8971183213753857 21.7909331112980809 20.2114045751024634
  4.5441831167334765 28.7937285442903708 20.2114045751024634
 -2.8087520879084256 35.7965239772826607 20.2114045751024634
 -10.1616872925503348 42.7993194102749612 20.2114045751024634
 -17.5146224971922351 49.8021148432672405 20.2114045751024634
 26.2528489590095795 22.1410728829476895 20.2114045751024634
 18.8999137543676774 29.1438683159399829 20.2114045751024634
 11.5469785497257682 36.1466637489322764 20.2114045751024634
  4.1940433450838626 43.1494591819245699 20.2114045751024634
 -3.1588918595580502 50.1522546149168704 20.2114045751024634
 -10.5118270641999469 57.1550500479091497 20.2114045751024634
 -17.8647622688418615 64.1578454809014573 20.2114045751024634
 -25.2176974734837813 71.1606409138937579 20.2114045751024634
 33.2556443920018765 29.4940080875895845 20.2114045751024634
 25.9027091873599780 36.4968035205818921 20.2114045751024634
 18.5497739827180688 43.4995989535741785 20.2114045751024634
 11.1968387780761525 50.5023943865664791 20.2114045751024634
  3.8439035734342468 57.5051898195587654 20.2114045751024634
 -3.5090316312076588 64.5079852525510518 20.2114045751024634
 -10.8619668358495609 71.5107806855433381 20.2114045751024634
 12.2472580930249837  7.4352024736638924 20.2114045751024634
 47.6113750296360934 29.8441478592392109 20.2114045751024634
 40.2584398249941628 36.8469432922315008 20.2114045751024634
 32.9055046203522537 43.8497387252238013 20.2114045751024634
 25.5525694157103480 50.8525341582160877 20.2114045751024634
 18.1996342110684637 57.8553295912083811 20.2114045751024634
 10.8466990064265296 64.8581250242006746 20.2114045751024634
  3.4937638017846382 71.8609204571929610 20.2114045751024634
 -3.8591714028572675 78.8637158901852615 20.2114045751024634
 19.2500535260172789 14.7881376783057963 20.2114045751024634
 54.6141704626283655 37.1970830638811094 20.2114045751024634
 47.2612352579864421 44.1998784968734100 20.2114045751024634
 39.9083000533445400 51.2026739298657034 20.2114045751024634
 32.5553648487026379 58.2054693628579898 20.2114045751024634
 25.2024296440607465 65.2082647958502974 20.2114045751024634
 17.8494944394188337 72.2110602288425980 20.2114045751024634
 10.4965592347769281 79.2138556618348844 20.2114045751024634
 33.6057841636514780 15.1382774499554049 20.2114045751024634
 61.6169658956206590 44.5500182685230328 20.2114045751024634
 54.2640306909787427 51.5528137015153121 20.2114045751024634
 46.9110954863368477 58.5556091345076197 20.2114045751024634
 39.5581602816949456 65.5584045674999061 20.2114045751024634
 32.2052250770530293 72.5612000004922209 20.2114045751024634
 24.8522898724111378 79.5639954334844930 20.2114045751024634
 17.4993546677692180 86.5667908664767936 20.2114045751024634
 40.6085795966437786 22.4912126545973017 20.2114045751024634
 53.9138909193291482 65.9085443391495289 20.2114045751024634
 46.5609557146872390 72.9113397721418295 20.2114045751024634
 39.2080205100453298 79.9141352051341300 20.2114045751024634
 31.8550853054034242 86.9169306381263880 20.2114045751024634
 24.5021501007615079 93.9197260711186885 20.2114045751024634
 46.2108159430376020 87.2670704097760108 20.2114045751024634
 38.8578807383956786 94.2698658427682830 20.2114045751024634
 61.9671056672702605 30.1942876308888302 20.2114045751024634
 67.0126860908630704 36.5170858873002544 21.3960739248114109
  2.9371078789836034 13.4078609584256920 21.3960739248114109
 -4.4158273256583023 20.4106563914179802 21.3960739248114109
 59.3096111145715525 57.8756119579267505 21.3960739248114109
  9.9399033119758933 20.7607961630675995 21.3960739248114109
  2.5869681073339841 27.7635915960598965 21.3960739248114109
 -4.7659670973079216 34.7663870290521828 21.3960739248114109
 -12.1189023019498237 41.7691824620444763 21.3960739248114109
 -19.4718375065917364 48.7719778950367768 21.3960739248114109
 24.2956339496100888 21.1109359347172116 21.3960739248114109
 16.9426987449681867 28.1137313677095122 21.3960739248114109
  9.5897635403262793 35.1165268007018057 21.3960739248114109
  2.2368283356843737 42.1193222336940849 21.3960739248114109
 -5.1161068689575337 49.1221176666863855 21.3960739248114109
 -12.4690420735994394 56.1249130996786789 21.3960739248114109
 -19.8219772782413557 63.1277085326709795 21.3960739248114109
 -27.1749124828832578 70.1305039656632658 21.3960739248114109
 31.2984293826023716 28.4638711393591066 21.3960739248114109
 23.9454941779604837 35.4666665723514143 21.3960739248114109
 16.5925589733185674 42.4694620053437148 21.3960739248114109
  9.2396237686766618 49.4722574383359941 21.3960739248114109
  1.8866885640347562 56.4750528713282876 21.3960739248114109
 -5.4662466406071566 63.4778483043205881 21.3960739248114109
 -12.8191818452490658 70.4806437373128745 21.3960739248114109
 10.2900430836255037  6.4050655254333986 21.3960739248114109
 45.6541600202365956 28.8140109110087295 21.3960739248114109
 38.3012248155946793 35.8168063440010229 21.3960739248114109
 30.9482896109527772 42.8196017769933235 21.3960739248114109
 23.5953544063108751 49.8223972099856169 21.3960739248114109
 16.2424192016689730 56.8251926429779033 21.3960739248114109
  8.8894839970270354 63.8279880759702039 21.3960739248114109
  1.5365487923851440 70.8307835089624831 21.3960739248114109
 -5.8163864122567617 77.8335789419547837 21.3960739248114109
 17.2928385166177954 13.7580007300753024 21.3960739248114109
 52.6569554532288819 36.1669461156506458 21.3960739248114109
 45.3040202485869656 43.1697415486429321 21.3960739248114109
 37.9510850439450635 50.1725369816352185 21.3960739248114109
 30.5981498393031472 57.1753324146275048 21.3960739248114109
 23.2452146346612416 64.1781278476198338 21.3960739248114109
 15.8922794300193466 71.1809232806121059 21.3960739248114109
  8.5393442253774268 78.1837187136044065 21.3960739248114109
 31.6485691542519838 14.1081405017249217 21.3960739248114109
 59.6597508862211754 43.5198813202925479 21.3960739248114109
 52.3068156815792520 50.5226767532848271 21.3960739248114109
 44.9538804769373641 57.5254721862771348 21.3960739248114109
 37.6009452722954478 64.5282676192694282 21.3960739248114109
 30.2480100676535528 71.5310630522617146 21.3960739248114109
 22.8950748630116330 78.5338584852540151 21.3960739248114109
 15.5421396583697238 85.5366539182463157 21.3960739248114109
 38.6513645872442808 21.4610757063668487 21.3960739248114109
 51.9566759099296576 64.8784073909190511 21.3960739248114109
 44.6037407052877484 71.8812028239113374 21.3960739248114109
 37.2508055006458321 78.8839982569036238 21.3960739248114109
 29.8978702960039229 85.8867936898959243 21.3960739248114109
 22.5449350913620243 92.8895891228882107 21.3960739248114109
 44.2536009336381113 86.2369334615455330 21.3960739248114109
 36.9006657289962163 93.2397288945378193 21.3960739248114109
 60.0098906578707698 29.1641506826583594 21.3960739248114109
 66.1232039611680165 38.0856892154860631 21.2953594582031442
  2.0476257492885512 14.9764642866115008 21.2953594582031442
 -5.3053094553533571 21.9792597196037960 21.2953594582031442
 58.4201289848765057 59.4442152861125592 21.2953594582031442
  9.0504211822808394 22.3293994912534082 21.2953594582031442
  1.6974859776389302 29.3321949242456981 21.2953594582031442
 -5.6554492270029755 36.3349903572379915 21.2953594582031442
 -13.0083844316448811 43.3377857902302850 21.2953594582031442
 -20.3613196362867903 50.3405812232225784 21.2953594582031442
 23.4061518199150385 22.6795392629030133 21.2953594582031442
 16.0532166152731364 29.6823346958953138 21.2953594582031442
  8.7002814106312236 36.6851301288876073 21.2953594582031442
  1.3473462059893198 43.6879255618799007 21.2953594582031442
 -6.0055889986525859 50.6907209948721942 21.2953594582031442
 -13.3585242032944969 57.6935164278644947 21.2953594582031442
 -20.7114594079364096 64.6963118608567811 21.2953594582031442
 -28.0643946125783010 71.6991072938490674 21.2953594582031442
 30.4089472529073213 30.0324744675449153 21.2953594582031442
 23.0560120482654227 37.0352699005372301 21.2953594582031442
 15.7030768436235206 44.0380653335295165 21.2953594582031442
  8.3501416389816114 51.0408607665218170 21.2953594582031442
  0.9972064343397058 58.0436561995140963 21.2953594582031442
 -6.3557287703021963 65.0464516325063897 21.2953594582031442
 -13.7086639749441037 72.0492470654986761 21.2953594582031442
  9.4005609539304462  7.9736688536192144 21.2953594582031442
 44.7646778905415275 30.3826142391945346 21.2953594582031442
 37.4117426858996183 37.3854096721868387 21.2953594582031442
 30.0588074812577162 44.3882051051791251 21.2953594582031442
 22.7058722766158141 51.3910005381714257 21.2953594582031442
 15.3529370719739191 58.3937959711637120 21.2953594582031442
  8.0000018673319921 65.3965914041559984 21.2953594582031442
  0.6470666626900829 72.3993868371482989 21.2953594582031442
 -6.7058685419518085 79.4021822701405995 21.2953594582031442
 16.4033563869227450 15.3266040582611005 21.2953594582031442
 51.7674733235338138 37.7355494438364403 21.2953594582031442
 44.4145381188919259 44.7383448768287479 21.2953594582031442
 37.0616029142500025 51.7411403098210343 21.2953594582031442
 29.7086677096080933 58.7439357428133420 21.2953594582031442
 22.3557325049661948 65.7467311758056212 21.2953594582031442
 15.0027973003242963 72.7495266087979076 21.2953594582031442
  7.6498620956823800 79.7523220417902081 21.2953594582031442
 30.7590870245569263 15.6767438299107376 21.2953594582031442
 58.7702687565261215 45.0884846484783566 21.2953594582031442
 51.4173335518842052 52.0912800814706500 21.2953594582031442
 44.0643983472423102 59.0940755144629577 21.2953594582031442
 36.7114631426004081 66.0968709474552440 21.2953594582031442
 29.3585279379585025 73.0996663804475304 21.2953594582031442
 22.0055927333165862 80.1024618134398168 21.2953594582031442
 14.6526575286746841 87.1052572464321315 21.2953594582031442
 37.7618824575492411 23.0296790345526539 21.2953594582031442
 51.0671937802346108 66.4470107191048669 21.2953594582031442
 43.7142585755926945 73.4498061520971390 21.2953594582031442
 36.3613233709507853 80.4526015850894538 21.2953594582031442
 29.0083881663088796 87.4553970180817259 21.2953594582031442
 52.1176130951834224 23.3798188062022696 21.2953594582031442
 43.3641188039430645 87.8055367897313204 21.2953594582031442
 36.0111835993011553 94.8083322227236209 21.2953594582031442
 59.1204085281757159 30.7327540108441752 21.2953594582031442
 -3.0666829020378796  8.7261148215302136 22.5856994142773537
  3.9361125309544134 16.0790500261721192 22.5856994142773537
 -3.4168226736874932 23.0818454591644127 22.5856994142773537
 -10.7697578783294041 30.0846408921567097 22.5856994142773537
 10.9389079639467042 23.4319852308140248 22.5856994142773537
  3.5859727593047950 30.4347806638063219 22.5856994142773537
 -3.7669624453371107 37.4375760967986082 22.5856994142773537
 -11.1198976499790234 44.4403715297909088 22.5856994142773537
 -18.4728328546209291 51.4431669627832093 22.5856994142773537
 25.2946386015808997 23.7821250024636370 22.5856994142773537
 17.9417033969389976 30.7849204354559376 22.5856994142773537
 10.5887681922970884 37.7877158684482310 22.5856994142773537
  3.2358329876551863 44.7905113014405174 22.5856994142773537
 -4.1171022169867335 51.7933067344328251 22.5856994142773537
 -11.4700374216286338 58.7961021674251043 22.5856994142773537
 -18.8229726262705483 65.7988976004174049 22.5856994142773537
 -26.1759078309124504 72.8016930334096912 22.5856994142773537
 32.2974340345731932 31.1350602071055391 22.5856994142773537
 24.9444988299312769 38.1378556400978397 22.5856994142773537
 17.5915636252893748 45.1406510730901331 22.5856994142773537
 10.2386284206474691 52.1434465060824337 22.5856994142773537
  2.8856932160055599 59.1462419390747343 22.5856994142773537
 -4.4672419886363421 66.1490373720670135 22.5856994142773537
 -11.8201771932782478 73.1518328050592999 22.5856994142773537
 11.2890477355963075  9.0762545931798311 22.5856994142773537
 46.6531646722074029 31.4851999787551691 22.5856994142773537
 39.3002294675654937 38.4879954117474483 22.5856994142773537
 31.9472942629235845 45.4907908447397489 22.5856994142773537
 24.5943590582816789 52.4935862777320494 22.5856994142773537
 17.2414238536397804 59.4963817107243358 22.5856994142773537
  9.8884886489978463 66.4991771437166221 22.5856994142773537
  2.5355534443559549 73.5019725767089227 22.5856994142773537
 -4.8173817602859472 80.5047680097012233 22.5856994142773537
 18.2918431685886027 16.4291897978217349 22.5856994142773537
 53.6559601051996822 38.8381351833970641 22.5856994142773537
 46.3030249005577801 45.8409306163893575 22.5856994142773537
 38.9500896959158638 52.8437260493816581 22.5856994142773537
 31.5971544912739581 59.8465214823739444 22.5856994142773537
 24.2442192866320632 66.8493169153662450 22.5856994142773537
 16.8912840819901611 73.8521123483585598 22.5856994142773537
  9.5383488773482448 80.8549077813508319 22.5856994142773537
 32.6475738062227947 16.7793295694713365 22.5856994142773537
 60.6587555381919969 46.1910703880389946 22.5856994142773537
 53.3058203335500806 53.1938658210312667 22.5856994142773537
 45.9528851289081786 60.1966612540235815 22.5856994142773537
 38.5999499242662623 67.1994566870158536 22.5856994142773537
 31.2470147196243566 74.2022521200081542 22.5856994142773537
 23.8940795149824368 81.2050475530004405 22.5856994142773537
 16.5411443103405382 88.2078429859927553 22.5856994142773537
 39.6503692392150953 24.1322647741132670 22.5856994142773537
 52.9556805619004649 67.5495964586654623 22.5856994142773537
 45.6027453572585415 74.5523918916577628 22.5856994142773537
 38.2498101526166394 81.5551873246500634 22.5856994142773537
 30.8968749479747302 88.5579827576423497 22.5856994142773537
 54.0060998768492908 24.4824045457628863 22.5856994142773537
 45.2526055856089329 88.9081225292919441 22.5856994142773537
 37.8996703809670237 95.9109179622842589 22.5856994142773537
 61.0088953098415772 31.8353397504047990 22.5856994142773537
 -2.2802618311833687  7.1232221469051735 22.7772002240411204
  4.7225336018089248 14.4761573515470765 22.7772002240411204
 -2.6304016028329826 21.4789527845393700 22.7772002240411204
 -9.9833368074748901 28.4817482175316634 22.7772002240411204
 11.7253290348012165 21.8290925561889892 22.7772002240411204
  4.3723938301593090 28.8318879891812827 22.7772002240411204
 -2.9805413744825948 35.8346834221735691 22.7772002240411204
 -10.3334765791245111 42.8374788551658696 22.7772002240411204
 -17.6864117837664168 49.8402742881581631 22.7772002240411204
 26.0810596724354085 22.1792323278385979 22.7772002240411204
 18.7281244677935064 29.1820277608308913 22.7772002240411204
 11.3751892631516078 36.1848231938231919 22.7772002240411204
  4.0222540585096898 43.1876186268154854 22.7772002240411204
 -3.3306811461322177 50.1904140598077788 22.7772002240411204
 -10.6836163507741233 57.1932094928000652 22.7772002240411204
 -18.0365515554160396 64.1960049257923657 22.7772002240411204
 -25.3894867600579346 71.1988003587846521 22.7772002240411204
 33.0838551054277019 29.5321675324805000 22.7772002240411204
 25.7309199007857892 36.5349629654727934 22.7772002240411204
 18.3779846961438906 43.5377583984650940 22.7772002240411204
 11.0250494915019708 50.5405538314573946 22.7772002240411204
  3.6721142868600687 57.5433492644496738 22.7772002240411204
 -3.6808209177818476 64.5461446974419744 22.7772002240411204
 -11.0337561224237497 71.5489401304342607 22.7772002240411204
 12.0754688064508144  7.4733619185547955 22.7772002240411204
 47.4395857430619046 29.8823073041301157 22.7772002240411204
 40.0866505384200025 36.8851027371224092 22.7772002240411204
 32.7337153337780933 43.8878981701147026 22.7772002240411204
 25.3807801291361805 50.8906936031070032 22.7772002240411204
 18.0278449244942962 57.8934890360992966 22.7772002240411204
 10.6749097198523657 64.8962844690915830 22.7772002240411204
  3.3219745152104601 71.8990799020838836 22.7772002240411204
 -4.0309606894314385 78.9018753350761841 22.7772002240411204
 19.0782642394431150 14.8262971231966851 22.7772002240411204
 54.4423811760541909 37.2352425087720178 22.7772002240411204
 47.0894459714122746 44.2380379417643255 22.7772002240411204
 39.7365107667703725 51.2408333747566260 22.7772002240411204
 32.3835755621284704 58.2436288077489195 22.7772002240411204
 25.0306403574865648 65.2464242407411916 22.7772002240411204
 17.6777051528446449 72.2492196737335064 22.7772002240411204
 10.3247699482027464 79.2520151067257927 22.7772002240411204
 33.4339948770773034 15.1764368948463204 22.7772002240411204
 61.4451766090464844 44.5881777134139270 22.7772002240411204
 54.0922414044045610 51.5909731464062133 22.7772002240411204
 46.7393061997626802 58.5937685793985139 22.7772002240411204
 39.3863709951207710 65.5965640123908145 22.7772002240411204
 32.0334357904788618 72.5993594453831008 22.7772002240411204
 24.6805005858369526 79.6021548783754156 22.7772002240411204
 17.3275653811950399 86.6049503113677019 22.7772002240411204
 40.4367903100695969 22.5293720994882278 22.7772002240411204
 53.7421016327549594 65.9467037840404231 22.7772002240411204
 46.3891664281130716 72.9494992170327237 22.7772002240411204
 39.0362312234711624 79.9522946500250384 22.7772002240411204
 31.6832960188292354 86.9550900830173248 22.7772002240411204
 24.3303608141873298 93.9578855160096111 22.7772002240411204
 46.0390266564634203 87.3052298546668908 22.7772002240411204
 38.6860914518215253 94.3080252876591913 22.7772002240411204
 61.7953163806961001 30.2324470757797457 22.7772002240411204
 65.9496807523535580 38.3092217638793642 23.7756669130314293
  1.8741025404740883 15.1999968350048018 23.7756669130314293
 -5.4788326641678227 22.2027922679971006 23.7756669130314293
 58.2466057760620401 59.6677478345058674 23.7756669130314293
  8.8768979734663738 22.5529320396467128 23.7756669130314293
  1.5239627688244664 29.5557274726390062 23.7756669130314293
 -5.8289724358174393 36.5585229056312997 23.7756669130314293
 -13.1819076404593467 43.5613183386235860 23.7756669130314293
 -20.5348428451012595 50.5641137716158866 23.7756669130314293
 23.2326286111005764 22.9030718112963285 23.7756669130314293
 15.8796934064586637 29.9058672442886149 23.7756669130314293
  8.5267582018167598 36.9086626772809154 23.7756669130314293
  1.1738229971748559 43.9114581102732089 23.7756669130314293
 -6.1791122074670586 50.9142535432655023 23.7756669130314293
 -13.5320474121089571 57.9170489762577745 23.7756669130314293
 -20.8849826167508716 64.9198444092500893 23.7756669130314293
 -28.2379178213927773 71.9226398422423614 23.7756669130314293
 30.2354240440928663 30.2560070159382306 23.7756669130314293
 22.8824888394509571 37.2588024489305312 23.7756669130314293
 15.5295536348090515 44.2615978819228246 23.7756669130314293
  8.1766184301671494 51.2643933149151110 23.7756669130314293
  0.8236832255252473 58.2671887479074115 23.7756669130314293
 -6.5292519791166654 65.2699841808996979 23.7756669130314293
 -13.8821871837585782 72.2727796138920127 23.7756669130314293
  9.2270377451159860  8.1972014020125172 23.7756669130314293
 44.5911546817270903 30.6061467875878463 23.7756669130314293
 37.2382194770851598 37.6089422205801469 23.7756669130314293
 29.8852842724432506 44.6117376535724333 23.7756669130314293
 22.5323490678013449 51.6145330865647196 23.7756669130314293
 15.1794138631594535 58.6173285195570131 23.7756669130314293
  7.8264786585175301 65.6201239525493207 23.7756669130314293
  0.4735434538756138 72.6229193855416071 23.7756669130314293
 -6.8793917507662812 79.6257148185339076 23.7756669130314293
 16.2298331781082723 15.5501366066544193 23.7756669130314293
 51.5939501147193482 37.9590819922297484 23.7756669130314293
 44.2410149100774532 44.9618774252220490 23.7756669130314293
 36.8880797054355440 51.9646728582143425 23.7756669130314293
 29.5351445007936348 58.9674682912066430 23.7756669130314293
 22.1822092961517185 65.9702637241989294 23.7756669130314293
 14.8292740915098236 72.9730591571912441 23.7756669130314293
  7.4763388868679215 79.9758545901835163 23.7756669130314293
 30.5855638157424679 15.9002763783040386 23.7756669130314293
 58.5967455477116346 45.3120171968716505 23.7756669130314293
 51.2438103430697325 52.3148126298639369 23.7756669130314293
 43.8908751384278304 59.3176080628562516 23.7756669130314293
 36.5379399337859496 66.3204034958485380 23.7756669130314293
 29.1850047291440298 73.3231989288408244 23.7756669130314293
 21.8320695245021099 80.3259943618331249 23.7756669130314293
 14.4791343198602185 87.3287897948254113 23.7756669130314293
 37.5883592487347684 23.2532115829459514 23.7756669130314293
 50.8936705714201310 66.6705432674981466 23.7756669130314293
 43.5407353667782218 73.6733387004904614 23.7756669130314293
 36.1878001621363126 80.6761341334827478 23.7756669130314293
 28.8348649574944034 87.6789295664750341 23.7756669130314293
 51.9440898863689569 23.6033513545955458 23.7756669130314293
 43.1905955951286131 88.0290693381246143 23.7756669130314293
 35.8376603904866826 95.0318647711169575 23.7756669130314293
 58.9468853193612432 30.9562865592374479 23.7756669130314293
 67.4393616835532157 38.3655841648988059 24.7739266949111183
  3.3637834716737309 15.2563592360242399 24.7739266949111183
 -3.9891517329681765 22.2591546690165352 24.7739266949111183
 -11.3420869376100857 29.2619501020088286 24.7739266949111183
 10.3665789046660191 22.6092944406661509 24.7739266949111183
  3.0136437000241134 29.6120898736584479 24.7739266949111183
 -4.3392915046177922 36.6148853066507343 24.7739266949111183
 -11.6922267092596979 43.6176807396430206 24.7739266949111183
 -19.0451619139016053 50.6204761726353283 24.7739266949111183
 24.7223095423002270 22.9594342123157666 24.7739266949111183
 17.3693743376583107 29.9622296453080565 24.7739266949111183
 10.0164391330164033 36.9650250783003571 24.7739266949111183
  2.6635039283744995 43.9678205112926506 24.7739266949111183
 -4.6894312762674115 50.9706159442849440 24.7739266949111183
 -12.0423664809093189 57.9734113772772304 24.7739266949111183
 -19.3953016855512281 64.9762068102695309 24.7739266949111183
 -26.7482368901931444 71.9790022432618173 24.7739266949111183
 31.7251049752925098 30.3123694169576652 24.7739266949111183
 24.3721697706506006 37.3151648499499657 24.7739266949111183
 17.0192345660086986 44.3179602829422592 24.7739266949111183
  9.6662993613667965 51.3207557159345527 24.7739266949111183
  2.3133641567248802 58.3235511489268461 24.7739266949111183
 -5.0395710479170219 65.3263465819191396 24.7739266949111183
 -12.3925062525589311 72.3291420149114401 24.7739266949111183
 10.7167186763156277  8.2535638030319625 24.7739266949111183
 46.0808356129267054 30.6625091886072809 24.7739266949111183
 38.7279004082848033 37.6653046215995815 24.7739266949111183
 31.3749652036429012 44.6681000545918607 24.7739266949111183
 24.0220299990009885 51.6708954875841613 24.7739266949111183
 16.6690947943590935 58.6736909205764618 24.7739266949111183
  9.3161595897171630 65.6764863535687624 24.7739266949111183
  1.9632243850752680 72.6792817865610346 24.7739266949111183
 -5.3897108195666377 79.6820772195533493 24.7739266949111183
 17.7195141093079123 15.6064990076738628 24.7739266949111183
 53.0836310459189846 38.0154443932491830 24.7739266949111183
 45.7306958412770967 45.0182398262414836 24.7739266949111183
 38.3777606366352018 52.0210352592337841 24.7739266949111183
 31.0248254319932819 59.0238306922260705 24.7739266949111183
 23.6718902273513763 66.0266261252183568 24.7739266949111183
 16.3189550227094564 73.0294215582106716 24.7739266949111183
  8.9660198180675508 80.0322169912029722 24.7739266949111183
 32.0752447469421114 15.9566387793234661 24.7739266949111183
 60.0864264789113136 45.3683795978911064 24.7739266949111183
 52.7334912742693760 52.3711750308833786 24.7739266949111183
 45.3805560696274739 59.3739704638756933 24.7739266949111183
 38.0276208649855789 66.3767658968679655 24.7739266949111183
 30.6746856603436697 73.3795613298602660 24.7739266949111183
 23.3217504557017499 80.3823567628525666 24.7739266949111183
 15.9688152510598478 87.3851521958448529 24.7739266949111183
 39.0780401799344119 23.3095739839653930 24.7739266949111183
 52.3833515026197887 66.7269056685176025 24.7739266949111183
 45.0304162979778795 73.7297011015098889 24.7739266949111183
 37.6774810933359703 80.7324965345021894 24.7739266949111183
 30.3245458886940646 87.7352919674944758 24.7739266949111183
 53.4337708175686075 23.6597137556150017 24.7739266949111183
 44.6802765263282282 88.0854317391440702 24.7739266949111183
 37.3273413216863261 95.0882271721363850 24.7739266949111183
 60.4365662505609080 31.0126489602569038 24.7739266949111183
 67.7577902243098293 35.9723908558103176 24.2638976868488143
  3.6822120124303357 12.8631659269357446 24.2638976868488143
 -3.6707231922115726 19.8659613599280434 24.2638976868488143
 -11.0236583968534845 26.8687567929203368 24.2638976868488143
 10.6850074454226203 20.2161011315776520 24.2638976868488143
  3.3320722407807164 27.2188965645699454 24.2638976868488143
 -4.0208629638611910 34.2216919975622389 24.2638976868488143
 -11.3737981685030984 41.2244874305545324 24.2638976868488143
 -18.7267333731449988 48.2272828635468116 24.2638976868488143
 25.0407380830568158 20.5662409032272606 24.2638976868488143
 17.6878028784149173 27.5690363362195683 24.2638976868488143
 10.3348676737730116 34.5718317692118546 24.2638976868488143
  2.9819324691311024 41.5746272022041552 24.2638976868488143
 -4.3710027355108139 48.5774226351964558 24.2638976868488143
 -11.7239379401527124 55.5802180681887350 24.2638976868488143
 -19.0768731447946180 62.5830135011810285 24.2638976868488143
 -26.4298083494365201 69.5858089341733006 24.2638976868488143
 32.0435335160491022 27.9191761078691627 24.2638976868488143
 24.6905983114072143 34.9219715408614633 24.2638976868488143
 17.3376631067653015 41.9247669738537709 24.2638976868488143
  9.9847279021233852 48.9275624068460644 24.2638976868488143
  2.6317926974814831 55.9303578398383507 24.2638976868488143
 -4.7211425071604189 62.9331532728306300 24.2638976868488143
 -12.0740777118023352 69.9359487058229377 24.2638976868488143
 11.0351472170722253  5.8603704939434635 24.2638976868488143
 46.3992641536833190 28.2693158795187856 24.2638976868488143
 39.0463289490414098 35.2721113125110719 24.2638976868488143
 31.6933937443995006 42.2749067455033725 24.2638976868488143
 24.3404585397576056 49.2777021784956730 24.2638976868488143
 16.9875233351156929 56.2804976114879594 24.2638976868488143
  9.6345881304737730 63.2832930444802528 24.2638976868488143
  2.2816529258318745 70.2860884774725463 24.2638976868488143
 -5.0712822788100347 77.2888839104648468 24.2638976868488143
 18.0379426500645295 13.2133056985853568 24.2638976868488143
 53.4020595866755983 35.6222510841606947 24.2638976868488143
 46.0491243820336962 42.6250465171529882 24.2638976868488143
 38.6961891773917870 49.6278419501452817 24.2638976868488143
 31.3432539727498778 56.6306373831375680 24.2638976868488143
 23.9903187681079828 63.6334328161298615 24.2638976868488143
 16.6373835634660665 70.6362282491221691 24.2638976868488143
  9.2844483588241680 77.6390236821144555 24.2638976868488143
  1.9315131541822481 84.6418191151067276 24.2638976868488143
 60.4048550196679201 42.9751862888026039 24.2638976868488143
 53.0519198150259825 49.9779817217948903 24.2638976868488143
 45.6989846103840947 56.9807771547871837 24.2638976868488143
 38.3460494057421784 63.9835725877794843 24.2638976868488143
 30.9931142011002727 70.9863680207717778 24.2638976868488143
 23.6401789964583671 77.9891634537640925 24.2638976868488143
 16.2872437918164650 84.9919588867563789 24.2638976868488143
 39.3964687206910185 20.9163806748768977 24.2638976868488143
 52.7017800433763739 64.3337123594290858 24.2638976868488143
 45.3488448387344647 71.3365077924213864 24.2638976868488143
 37.9959096340925697 78.3393032254136727 24.2638976868488143
 30.6429744294506570 85.3420986584059733 24.2638976868488143
 23.2900392248087549 92.3448940913982597 24.2638976868488143
 44.9987050670848490 85.6922384300555819 24.2638976868488143
 37.6457698624429469 92.6950338630478541 24.2638976868488143
 60.7549947913175004 28.6194556511684119 24.2638976868488143
 66.3531235815765257 36.3275646160182930 25.1520779364791665
  2.2775453696970613 13.2183396871437253 25.1520779364791665
 -5.0753898349448487 20.2211351201360223 25.1520779364791665
 58.6500486052850079 57.6860906866447820 25.1520779364791665
  9.2803408026893486 20.5712748917856345 25.1520779364791665
  1.9274055980474412 27.5740703247779244 25.1520779364791665
 -5.4255296065944716 34.5768657577702214 25.1520779364791665
 -12.7784648112363683 41.5796611907625078 25.1520779364791665
 -20.1314000158782846 48.5824566237548083 25.1520779364791665
 23.6360714403235477 20.9214146634352502 25.1520779364791665
 16.2831362356816385 27.9242100964275437 25.1520779364791665
  8.9302010310397346 34.9270055294198372 25.1520779364791665
  1.5772658263978290 41.9298009624121306 25.1520779364791665
 -5.7756693782440802 48.9325963954044170 25.1520779364791665
 -13.1286045828859841 55.9353918283967317 25.1520779364791665
 -20.4815397875279004 62.9381872613890110 25.1520779364791665
 -27.8344749921698025 69.9409826943813044 25.1520779364791665
 30.6388668733158411 28.2743498680771523 25.1520779364791665
 23.2859316686739319 35.2771453010694600 25.1520779364791665
 15.9329964640320227 42.2799407340617392 25.1520779364791665
  8.5800612593901242 49.2827361670540398 25.1520779364791665
  1.2271260547482150 56.2855316000463262 25.1520779364791665
 -6.1258091498936942 63.2883270330386196 25.1520779364791665
 -13.4787443545356052 70.2911224660309131 25.1520779364791665
  9.6304805743389537  6.2155442541514434 25.1520779364791665
 44.9945975109500367 28.6244896397267681 25.1520779364791665
 37.6416623063081275 35.6272850727190615 25.1520779364791665
 30.2887271016662325 42.6300805057113621 25.1520779364791665
 22.9357918970243233 49.6328759387036484 25.1520779364791665
 15.5828566923824212 56.6356713716959348 25.1520779364791665
  8.2299214877405085 63.6384668046882283 25.1520779364791665
  0.8769862830985922 70.6412622376805217 25.1520779364791665
 -6.4759489215433064 77.6440576706728223 25.1520779364791665
 16.6332760073312471 13.5684794587933499 25.1520779364791665
 51.9973929439423372 35.9774248443686773 25.1520779364791665
 44.6444577393004280 42.9802202773609707 25.1520779364791665
 37.2915225346585189 49.9830157103532713 25.1520779364791665
 29.9385873300166097 56.9858111433455647 25.1520779364791665
 22.5856521253747147 63.9886065763378440 25.1520779364791665
 15.2327169207327984 70.9914020093301588 25.1520779364791665
  7.8797817160908821 77.9941974423224451 25.1520779364791665
 30.9890066449654462 13.9186192304429532 25.1520779364791665
 59.0001883769346236 43.3303600490105794 25.1520779364791665
 51.6472531722927215 50.3331554820028728 25.1520779364791665
 44.2943179676508052 57.3359509149951663 25.1520779364791665
 36.9413827630088960 64.3387463479874668 25.1520779364791665
 29.5884475583669904 71.3415417809797390 25.1520779364791665
 22.2355123537250883 78.3443372139720537 25.1520779364791665
 14.8825771490831791 85.3471326469643401 25.1520779364791665
 37.9918020779577290 21.2715544350848695 25.1520779364791665
 51.2971134006431129 64.6888861196370755 25.1520779364791665
 43.9441781960011966 71.6916815526293760 25.1520779364791665
 36.5912429913592945 78.6944769856216624 25.1520779364791665
 29.2383077867173924 85.6972724186139487 25.1520779364791665
 21.8853725820754725 92.7000678516062635 25.1520779364791665
 43.5940384243515524 86.0474121902635432 25.1520779364791665
 36.2411032197096716 93.0502076232558295 25.1520779364791665
 59.3503281485842180 28.9746294113763980 25.1520779364791665
 66.2228084986691528 35.9571969648691621 23.5036398364846839
  2.1472302867896884 12.8479720359945979 23.5036398364846839
 -5.2057049178522163 19.8507674689868878 23.5036398364846839
 58.5197335223776278 57.3157230354956511 23.5036398364846839
  9.1500257197819828 20.2009072406365107 23.5036398364846839
  1.7970905151400753 27.2037026736287970 23.5036398364846839
 -5.5558446895018339 34.2064981066210905 23.5036398364846839
 -12.9087798941437413 41.2092935396133839 23.5036398364846839
 -20.2617150987856434 48.2120889726056703 23.5036398364846839
 23.5057563574161819 20.5510470122861193 23.5036398364846839
 16.1528211527742656 27.5538424452784128 23.5036398364846839
  8.7998859481323723 34.5566378782707062 23.5036398364846839
  1.4469507434904649 41.5594333112629997 23.5036398364846839
 -5.9059844611514514 48.5622287442552931 23.5036398364846839
 -13.2589196657933517 55.5650241772475795 23.5036398364846839
 -20.6118548704352698 62.5678196102398871 23.5036398364846839
 -27.9647900750771825 69.5706150432321948 23.5036398364846839
 30.5085517904084611 27.9039822169280143 23.5036398364846839
 23.1556165857665661 34.9067776499203148 23.5036398364846839
 15.8026813811246534 41.9095730829126225 23.5036398364846839
  8.4497461764827477 48.9123685159049018 23.5036398364846839
  1.0968109718408350 55.9151639488972023 23.5036398364846839
 -6.2561242328010671 62.9179593818894887 23.5036398364846839
 -13.6090594374429816 69.9207548148817892 23.5036398364846839
  9.5001654914315825  5.8451766030023036 23.5036398364846839
 44.8642824280426638 28.2541219885776371 23.5036398364846839
 37.5113472234007617 35.2569174215699235 23.5036398364846839
 30.1584120187588525 42.2597128545622240 23.5036398364846839
 22.8054768141169433 49.2625082875545175 23.5036398364846839
 15.4525416094750518 56.2653037205468181 23.5036398364846839
  8.0996064048331284 63.2680991535391044 23.5036398364846839
  0.7466712001912263 70.2708945865313837 23.5036398364846839
 -6.6062640044506793 77.2736900195236984 23.5036398364846839
 16.5029609244238742 13.1981118076442066 23.5036398364846839
 51.8670778610349643 35.6070571932195463 23.5036398364846839
 44.5141426563930409 42.6098526262118327 23.5036398364846839
 37.1612074517511601 49.6126480592041261 23.5036398364846839
 29.8082722471092474 56.6154434921964338 23.5036398364846839
 22.4553370424673275 63.6182389251887273 23.5036398364846839
 15.1024018378254326 70.6210343581810065 23.5036398364846839
  7.7494666331835198 77.6238297911733071 23.5036398364846839
 30.8586915620580733 13.5482515792938294 23.5036398364846839
 58.8698732940272578 42.9599923978614484 23.5036398364846839
 51.5169380893853344 49.9627878308537277 23.5036398364846839
 44.1640028847434394 56.9655832638460424 23.5036398364846839
 36.8110676801015302 63.9683786968383430 23.5036398364846839
 29.4581324754596245 70.9711741298306293 23.5036398364846839
 22.1051972708177189 77.9739695628229157 23.5036398364846839
 14.7522620661758097 84.9767649958152163 23.5036398364846839
 37.8614869950503703 20.9011867839357421 23.5036398364846839
 51.1667983177357399 64.3185184684879658 23.5036398364846839
 43.8138631130938165 71.3213139014802380 23.5036398364846839
 36.4609279084519216 78.3241093344725385 23.5036398364846839
 29.1079927038100124 85.3269047674648107 23.5036398364846839
 21.7550574991680961 92.3297002004571254 23.5036398364846839
 43.4637233414442079 85.6770445391144477 23.5036398364846839
 36.1107881368022987 92.6798399721067199 23.5036398364846839
 59.2200130656768593 28.6042617602272742 23.5036398364846839
  3.4082420857965348  7.2529915285410294 18.9104073287120826
 10.4110375187888273 14.6059267331829368 18.9104073287120826
  3.0581023141469243 21.6087221661752302 18.9104073287120826
 -4.2948328904949840 28.6115175991675237 18.9104073287120826
 17.4138329517811243 21.9588619378248424 18.9104073287120826
 10.0608977471392116 28.9616573708171359 18.9104073287120826
  2.7079625424973077 35.9644528038094293 18.9104073287120826
 -4.6449726621445979 42.9672482368017228 18.9104073287120826
 -11.9979078667865089 49.9700436697940233 18.9104073287120826
 31.7695635894153199 22.3090017094744510 18.9104073287120826
 24.4166283847734142 29.3117971424667445 18.9104073287120826
 17.0636931801315086 36.3145925754590451 18.9104073287120826
  9.7107579754895941 43.3173880084513527 18.9104073287120826
  2.3578227708476760 50.3201834414436462 18.9104073287120826
 -4.9951124337942154 57.3229788744359112 18.9104073287120826
 -12.3480476384361282 64.3257743074282331 18.9104073287120826
 -19.7009828430780338 71.3285697404204910 18.9104073287120826
 38.7723590224076133 29.6619369141163602 18.9104073287120826
 31.4194238177657041 36.6647323471086537 18.9104073287120826
 24.0664886131237949 43.6675277801009472 18.9104073287120826
 16.7135534084818786 50.6703232130932548 18.9104073287120826
  9.3606182038399801 57.6731186460855412 18.9104073287120826
  2.0076829991980709 64.6759140790778417 18.9104073287120826
 -5.3452522054438383 71.6787095120701281 18.9104073287120826
 -12.6981874100857475 78.6815049450624429 18.9104073287120826
 53.1280896600418231 30.0120766857659724 18.9104073287120826
 45.7751544553999139 37.0148721187582765 18.9104073287120826
 38.4222192507580047 44.0176675517505629 18.9104073287120826
 31.0692840461160955 51.0204629847428635 18.9104073287120826
 23.7163488414742005 58.0232584177351427 18.9104073287120826
 16.3634136368322807 65.0260538507274646 18.9104073287120826
  9.0104784321903608 72.0288492837197367 18.9104073287120826
  1.6575432275484587 79.0316447167120231 18.9104073287120826
 24.7667681564230087 14.9560665048325667 18.9104073287120826
 60.1308850930340881 37.3650118904078781 18.9104073287120826
 52.7779498883921931 44.3678073234001857 18.9104073287120826
 45.4250146837502911 51.3706027563924721 18.9104073287120826
 38.0720794791083819 58.3733981893847655 18.9104073287120826
 30.7191442744664727 65.3761936223770732 18.9104073287120826
 23.3662090698245528 72.3789890553693738 18.9104073287120826
 16.0132738651826614 79.3817844883616601 18.9104073287120826
  8.6603386605407380 86.3845799213539607 18.9104073287120826
 -3.9446931188453691 14.2557869615333175 18.9104073287120826
 59.7807453213844724 51.7207425280420807 18.9104073287120826
 52.4278101167425774 58.7235379610343813 18.9104073287120826
 45.0748749121006682 65.7263333940266676 18.9104073287120826
 37.7219397074587661 72.7291288270189540 18.9104073287120826
 30.3690045028168534 79.7319242600112545 18.9104073287120826
 23.0160692981749406 86.7347196930035693 18.9104073287120826
 46.1252942270494941 22.6591414811240739 18.9104073287120826
 -11.6477680951368967 35.6143130321598136 18.9104073287120826
 52.0776703450929688 73.0792685986685768 18.9104073287120826
 44.7247351404510667 80.0820640316608490 18.9104073287120826
 37.3717999358091575 87.0848594646531637 18.9104073287120826
 30.0188647311672305 94.0876548976454643 18.9104073287120826
 -19.3508430714284145 56.9728391027862955 18.9104073287120826
 -26.7037782760703237 63.9756345357785889 18.9104073287120826
 67.4838202976759902 30.3622164574155988 18.9104073287120826
  4.0567411189348874  7.7157787674971701 20.1369658172089991
 11.0595365519271844 15.0687139721390793 20.1369658172089991
  3.7066013472852735 22.0715094051313727 20.1369658172089991
 -3.6463338573566322 29.0743048381236591 20.1369658172089991
 18.0623319849194672 22.4216491767809813 20.1369658172089991
 10.7093967802775651 29.4244446097732819 20.1369658172089991
  3.3564615756356542 36.4272400427655683 20.1369658172089991
 -3.9964736290062461 43.4300354757578617 20.1369658172089991
 -11.3494088336481571 50.4328309087501623 20.1369658172089991
 32.4180626225536628 22.7717889484305900 20.1369658172089991
 25.0651274179117642 29.7745843814228905 20.1369658172089991
 17.7121922132698586 36.7773798144151911 20.1369658172089991
 10.3592570086279530 43.7801752474074917 20.1369658172089991
  3.0063218039860331 50.7829706803997709 20.1369658172089991
 -4.3466134006558725 57.7857661133920644 20.1369658172089991
 -11.6995486052977764 64.7885615463843720 20.1369658172089991
 -19.0524838099396945 71.7913569793766584 20.1369658172089991
 39.4208580555459704 30.1247241530724921 20.1369658172089991
 32.0679228509040541 37.1275195860648068 20.1369658172089991
 24.7149876462621485 44.1303150190570861 20.1369658172089991
 17.3620524416202429 51.1331104520493867 20.1369658172089991
 10.0091172369783301 58.1359058850416872 20.1369658172089991
  2.6561820323364209 65.1387013180339807 20.1369658172089991
 -4.6967531723054847 72.1414967510262670 20.1369658172089991
 18.4124717565690723  8.0659185391468018 20.1369658172089991
 53.7765886931801731 30.4748639247221220 20.1369658172089991
 46.4236534885382639 37.4776593577144155 20.1369658172089991
 39.0707182838963547 44.4804547907067018 20.1369658172089991
 31.7177830792544455 51.4832502236990024 20.1369658172089991
 24.3648478746125470 58.4860456566912745 20.1369658172089991
 17.0119126699706307 65.4888410896835751 20.1369658172089991
  9.6589774653287215 72.4916365226758899 20.1369658172089991
  2.3060422606868052 79.4944319556681904 20.1369658172089991
 25.4152671895613658 15.4188537437887057 20.1369658172089991
 60.7793841261724310 37.8277991293640241 20.1369658172089991
 53.4264489215305431 44.8305945623563247 20.1369658172089991
 46.0735137168886411 51.8333899953486110 20.1369658172089991
 38.7205785122467319 58.8361854283409116 20.1369658172089991
 31.3676433076048262 65.8389808613331979 20.1369658172089991
 24.0147081029629064 72.8417762943254843 20.1369658172089991
 16.6617728983210007 79.8445717273177991 20.1369658172089991
  9.3088376936791057 86.8473671603100854 20.1369658172089991
 -3.2961940857070204 14.7185742004894600 20.1369658172089991
 60.4292443545228224 52.1835297669982197 20.1369658172089991
 53.0763091498809416 59.1863251999905202 20.1369658172089991
 45.7233739452390182 66.1891206329828066 20.1369658172089991
 38.3704387405971232 73.1919160659750929 20.1369658172089991
 31.0175035359552069 80.1947114989673935 20.1369658172089991
 23.6645683313132977 87.1975069319596940 20.1369658172089991
 46.7737932601878441 23.1219287200802270 20.1369658172089991
 -10.9992690619985485 36.0771002711159525 20.1369658172089991
 -18.3522042666404523 43.0798957041082460 20.1369658172089991
 45.3732341735894096 80.5448512706170163 20.1369658172089991
 38.0202989689475004 87.5476467036092885 20.1369658172089991
 30.6673637643055983 94.5504421366016032 20.1369658172089991
 -18.7023440382900894 57.4356263417424486 20.1369658172089991
 -26.0552792429319950 64.4384217747347350 20.1369658172089991
 68.1323193308143402 30.8250036963717235 20.1369658172089991
  3.2302418293271513  7.3343028610771581 21.3724910513971231
 10.2330372623194439 14.6872380657190647 21.3724910513971231
  2.8801020576775320 21.6900334987113581 21.3724910513971231
 -4.4728331469643718 28.6928289317036516 21.3724910513971231
 17.2358326953117320 22.0401732703609667 21.3724910513971231
  9.8828974906698299 29.0429687033532673 21.3724910513971231
  2.5299622860279189 36.0457641363455608 21.3724910513971231
 -4.8229729186139831 43.0485595693378471 21.3724910513971231
 -12.1759081232558977 50.0513550023301548 21.3724910513971231
 31.5915633329459240 22.3903130420105825 21.3724910513971231
 24.2386281283040326 29.3931084750028830 21.3724910513971231
 16.8856929236621198 36.3959039079951765 21.3724910513971231
  9.5327577190202124 43.3986993409874771 21.3724910513971231
  2.1798225143782979 50.4014947739797563 21.3724910513971231
 -5.1731126902636078 57.4042902069720640 21.3724910513971231
 -12.5260478949055152 64.4070856399643503 21.3724910513971231
 -19.8789830995474190 71.4098810729566225 21.3724910513971231
 38.5943587659382175 29.7432482466524881 21.3724910513971231
 31.2414235612963225 36.7460436796447851 21.3724910513971231
 23.8884883566544168 43.7488391126370786 21.3724910513971231
 16.5355531520125112 50.7516345456293863 21.3724910513971231
  9.1826179473706020 57.7544299786216726 21.3724910513971231
  1.8296827427286892 64.7572254116139447 21.3724910513971231
 -5.5232524619132093 71.7600208446062595 21.3724910513971231
 17.5859724669613442  7.6844426327267703 21.3724910513971231
 52.9500894035724272 30.0933880183021074 21.3724910513971231
 45.5971541989305038 37.0961834512944009 21.3724910513971231
 38.2442189942886159 44.0989788842866943 21.3724910513971231
 30.8912837896467103 51.1017743172789949 21.3724910513971231
 23.5383485850048082 58.1045697502712670 21.3724910513971231
 16.1854133803628777 65.1073651832635676 21.3724910513971231
  8.8324781757209756 72.1101606162558681 21.3724910513971231
  1.4795429710790771 79.1129560492481545 21.3724910513971231
 24.5887678999536199 15.0373778373686893 21.3724910513971231
 59.9528848365647136 37.4463232229440095 21.3724910513971231
 52.5999496319228115 44.4491186559363172 21.3724910513971231
 45.2470144272809023 51.4519140889286035 21.3724910513971231
 37.8940792226390073 58.4547095219209041 21.3724910513971231
 30.5411440179970874 65.4575049549131904 21.3724910513971231
 23.1882088133551818 72.4603003879054768 21.3724910513971231
 15.8352736087132797 79.4630958208977773 21.3724910513971231
  8.4823384040713705 86.4658912538900779 21.3724910513971231
 -4.1226933753147570 14.3370982940694471 21.3724910513971231
 59.6027450649150978 51.8020538605782122 21.3724910513971231
 52.2498098602732028 58.8048492935704985 21.3724910513971231
 44.8968746556312936 65.8076447265627849 21.3724910513971231
 37.5439394509893845 72.8104401595550854 21.3724910513971231
 30.1910042463474788 79.8132355925473860 21.3724910513971231
 22.8380690417055590 86.8160310255396865 21.3724910513971231
 45.9472939705800911 22.7404528136602160 21.3724910513971231
 -11.8257683516062855 35.6956243646959379 21.3724910513971231
 51.8996700886235658 73.1605799312046940 21.3724910513971231
 44.5467348839816424 80.1633753641970088 21.3724910513971231
 37.1937996793397474 87.1661707971892952 21.3724910513971231
 29.8408644746978418 94.1689662301816099 21.3724910513971231
 -19.5288433278978069 57.0541504353224198 21.3724910513971231
 -26.8817785325397125 64.0569458683147133 21.3724910513971231
 67.3058200412066157 30.4435277899517303 21.3724910513971231
  3.9165305183513022  7.8088305550751897 22.6613989165339866
 10.9193259513435947 15.1617657597170972 22.6613989165339866
  3.5663907467016891 22.1645611927093924 22.6613989165339866
 -3.7865444579402210 29.1673566257016859 22.6613989165339866
 17.9221213843358917 22.5147009643590081 22.6613989165339866
 10.5691861796939808 29.5174963973513016 22.6613989165339866
  3.2162509750520734 36.5202918303435951 22.6613989165339866
 -4.1366842295898376 43.5230872633358956 22.6613989165339866
 -11.4896194342317450 50.5258826963281820 22.6613989165339866
 32.2778520219700695 22.8648407360086132 22.6613989165339866
 24.9249168173281781 29.8676361690009102 22.6613989165339866
 17.5719816126862689 36.8704316019932037 22.6613989165339866
 10.2190464080443650 43.8732270349854971 22.6613989165339866
  2.8661112034024505 50.8760224679777977 22.6613989165339866
 -4.4868240012394480 57.8788179009700698 22.6613989165339866
 -11.8397592058813697 64.8816133339623917 22.6613989165339866
 -19.1926944105232664 71.8844087669546639 22.6613989165339866
 39.2806474549623701 30.2177759406505118 22.6613989165339866
 31.9277122503204609 37.2205713736428123 22.6613989165339866
 24.5747770456785624 44.2233668066351129 22.6613989165339866
 17.2218418410366532 51.2261622396274134 22.6613989165339866
  9.8689066363947546 58.2289576726196856 22.6613989165339866
  2.5159714317528490 65.2317531056119861 22.6613989165339866
 -4.8369637728890638 72.2345485386042867 22.6613989165339866
 18.2722611559854933  8.1589703267248019 22.6613989165339866
 53.6363780925965941 30.5679157123001417 22.6613989165339866
 46.2834428879546707 37.5707111452924281 22.6613989165339866
 38.9305076833127686 44.5735065782847215 22.6613989165339866
 31.5775724786708416 51.5763020112770221 22.6613989165339866
 24.2246372740289573 58.5790974442693084 22.6613989165339866
 16.8717020693870374 65.5818928772615948 22.6613989165339866
  9.5187668647451318 72.5846883102538811 22.6613989165339866
  2.1658316601032226 79.5874837432461959 22.6613989165339866
 25.2750565889777903 15.5119055313667111 22.6613989165339866
 60.6391735255888804 37.9208509169420509 22.6613989165339866
 53.2862383209469428 44.9236463499343301 22.6613989165339866
 45.9333031163050549 51.9264417829266307 22.6613989165339866
 38.5803679116631457 58.9292372159189171 22.6613989165339866
 31.2274327070212436 65.9320326489112176 22.6613989165339866
 23.8744975023793344 72.9348280819035182 22.6613989165339866
 16.5215622977374217 79.9376235148958187 22.6613989165339866
  9.1686270930955196 86.9404189478880767 22.6613989165339866
 -3.4364046862906075 14.8116259880674832 22.6613989165339866
 60.2890337539392647 52.2765815545762464 22.6613989165339866
 52.9360985492973555 59.2793769875685399 22.6613989165339866
 45.5831633446554463 66.2821724205608405 22.6613989165339866
 38.2302281400135371 73.2849678535531268 22.6613989165339866
 30.8772929353716350 80.2877632865454132 22.6613989165339866
 23.5243577307297116 87.2905587195377137 22.6613989165339866
 46.6335826596042651 23.2149805076582503 22.6613989165339866
 -11.1394796625821151 36.1701520586939793 22.6613989165339866
 -18.4924148672240278 43.1729474916862870 22.6613989165339866
 45.2330235730058234 80.6379030581950360 22.6613989165339866
 37.8800883683639142 87.6406984911873508 22.6613989165339866
 30.5271531637219944 94.6434939241796229 22.6613989165339866
 -18.8425546388736578 57.5286781293204683 22.6613989165339866
 -26.1954898435155634 64.5314735623127547 22.6613989165339866
 67.9921087302307541 30.9180554839497574 22.6613989165339866
  3.0552591966499865  7.5669757247358262 23.9122849291930528
 10.0580546296422764 14.9199109293777337 23.9122849291930528
  2.7051194250003698 21.9227063623700253 23.9122849291930528
 -4.6478157796415340 28.9255017953623152 23.9122849291930528
 17.0608500626345645 22.2728461340196375 23.9122849291930528
  9.7079148579926606 29.2756415670119310 23.9122849291930528
  2.3549796533507550 36.2784370000042244 23.9122849291930528
 -4.9979555512911471 43.2812324329965037 23.9122849291930528
 -12.3508907559330652 50.2840278659888114 23.9122849291930528
 31.4165807002687636 22.6229859056692533 23.9122849291930528
 24.0636454956268580 29.6257813386615467 23.9122849291930528
 16.7107102909849630 36.6285767716538402 23.9122849291930528
  9.3577750863430449 43.6313722046461407 23.9122849291930528
  2.0048398817011410 50.6341676376384271 23.9122849291930528
 -5.3480953229407682 57.6369630706307206 23.9122849291930528
 -12.7010305275826809 64.6397585036230282 23.9122849291930528
 -20.0539657322245866 71.6425539366153004 23.9122849291930528
 38.4193761332610535 29.9759211103111554 23.9122849291930528
 31.0664409286191550 36.9787165433034630 23.9122849291930528
 23.7135057239772351 43.9815119762957494 23.9122849291930528
 16.3605705193353401 50.9843074092880428 23.9122849291930528
  9.0076353146934238 57.9871028422803576 23.9122849291930528
  1.6547001100515217 64.9898982752726369 23.9122849291930528
 -5.6982350945903910 71.9926937082649090 23.9122849291930528
 17.4109898342841696  7.9171154963854473 23.9122849291930528
 52.7751067708952633 30.3260608819607711 23.9122849291930528
 45.4221715662533541 37.3288563149530717 23.9122849291930528
 38.0692363616114449 44.3316517479453722 23.9122849291930528
 30.7163011569695428 51.3344471809376444 23.9122849291930528
 23.3633659523276300 58.3372426139299449 23.9122849291930528
 16.0104307476857173 65.3400380469222455 23.9122849291930528
  8.6574955430438258 72.3428334799145318 23.9122849291930528
  1.3045603384019131 79.3456289129068466 23.9122849291930528
 24.4137852672764666 15.2700507010273583 23.9122849291930528
 59.7779022038875638 37.6789960866026803 23.9122849291930528
 52.4249669992456404 44.6817915195949666 23.9122849291930528
 45.0720317946037241 51.6845869525872672 23.9122849291930528
 37.7190965899618220 58.6873823855795536 23.9122849291930528
 30.3661613853199306 65.6901778185718683 23.9122849291930528
 23.0132261806780143 72.6929732515641547 23.9122849291930528
 15.6602909760361193 79.6957686845564552 23.9122849291930528
  8.3073557713942030 86.6985641175487132 23.9122849291930528
 -4.2976760079919192 14.5697711577281215 23.9122849291930528
 59.4277624322379268 52.0347267242368758 23.9122849291930528
 52.0748272275960318 59.0375221572291764 23.9122849291930528
 44.7218920229541226 66.0403175902214628 23.9122849291930528
 37.3689568183122276 73.0431130232137633 23.9122849291930528
 30.0160216136703077 80.0459084562060639 23.9122849291930528
 22.6630864090284021 87.0487038891983644 23.9122849291930528
 45.7723113379029414 22.9731256773188726 23.9122849291930528
 -12.0007509842834423 35.9282972283546229 23.9122849291930528
 51.7246874559464160 73.3932527948633719 23.9122849291930528
 44.3717522513045068 80.3960482278556583 23.9122849291930528
 37.0188170466626048 87.3988436608479731 23.9122849291930528
 29.6658818420206920 94.4016390938402310 23.9122849291930528
 -19.7038259605749957 57.2868232989811048 23.9122849291930528
 -27.0567611652168907 64.2896187319733912 23.9122849291930528
 67.1308374085294446 30.6762006536103833 23.9122849291930528
  2.9175191443366706  6.1422533155853056 24.2210765872877118
  9.9203145773289609 13.4951885202272130 24.2210765872877118
  2.5673793726870526 20.4979839532195101 24.2210765872877118
 -4.7855558319548548 27.5007793862117964 24.2210765872877118
 16.9231100103212562 20.8481237248691116 24.2210765872877118
  9.5701748056793470 27.8509191578614121 24.2210765872877118
  2.2172396010374413 34.8537145908536985 24.2210765872877118
 -5.1356956036044679 41.8565100238459991 24.2210765872877118
 -12.4886308082463806 48.8593054568382925 24.2210765872877118
 31.2788406479554482 21.1982634965187309 24.2210765872877118
 23.9259054433135425 28.2010589295110208 24.2210765872877118
 16.5729702386716511 35.2038543625033356 24.2210765872877118
  9.2200350340297295 42.2066497954956219 24.2210765872877118
  1.8670998293878185 49.2094452284879083 24.2210765872877118
 -5.4858353752540854 56.2122406614801946 24.2210765872877118
 -12.8387705798959981 63.2150360944725023 24.2210765872877118
 -20.1917057845378984 70.2178315274647815 24.2210765872877118
 38.2816360809477416 28.5511987011606330 24.2210765872877118
 30.9287008763058324 35.5539941341529371 24.2210765872877118
 23.5757656716639232 42.5567895671452234 24.2210765872877118
 16.2228304670220176 49.5595850001375169 24.2210765872877118
  8.8698952623801119 56.5623804331298103 24.2210765872877118
  1.5169600577381956 63.5651758661221038 24.2210765872877118
 -5.8359751469037029 70.5679712991144186 24.2210765872877118
 -13.1889103515456050 77.5707667321067049 24.2210765872877118
 52.6373667185819656 28.9013384728102487 24.2210765872877118
 45.2844315139400422 35.9041339058025457 24.2210765872877118
 37.9314963092981401 42.9069293387948463 24.2210765872877118
 30.5785611046562309 49.9097247717871255 24.2210765872877118
 23.2256259000143288 56.9125202047794261 24.2210765872877118
 15.8726906953724125 63.9153156377717124 24.2210765872877118
  8.5197554907305069 70.9181110707640130 24.2210765872877118
  1.1668202860885941 77.9209065037563136 24.2210765872877118
 24.2760452149631512 13.8453282918768412 24.2210765872877118
 59.6401621515742235 36.2542736774521543 24.2210765872877118
 52.2872269469323072 43.2570691104444478 24.2210765872877118
 44.9342917422904264 50.2598645434367413 24.2210765872877118
 37.5813565376485030 57.2626599764290347 24.2210765872877118
 30.2284213330066045 64.2654554094213353 24.2210765872877118
 22.8754861283646882 71.2682508424136358 24.2210765872877118
 15.5225509237227968 78.2710462754059222 24.2210765872877118
  8.1696157190808769 85.2738417083982085 24.2210765872877118
 -4.4354160603052266 13.1450487485776026 24.2210765872877118
 59.2900223799246007 50.6100043150863428 24.2210765872877118
 51.9370871752827270 57.6127997480786647 24.2210765872877118
 44.5841519706408178 64.6155951810709581 24.2210765872877118
 37.2312167659989086 71.6183906140632587 24.2210765872877118
 29.8782815613569852 78.6211860470555308 24.2210765872877118
 22.5253463567150831 85.6239814800478314 24.2210765872877118
 45.6345712855896437 21.5484032681683644 24.2210765872877118
 -12.1384910365967507 34.5035748192041041 24.2210765872877118
 51.5869474036331184 71.9685303857128531 24.2210765872877118
 44.2340121989911950 78.9713258187051537 24.2210765872877118
 36.8810769943493000 85.9741212516974400 24.2210765872877118
 29.5281417897073801 92.9769166846897264 24.2210765872877118
 -19.8415660128882934 55.8621008898305718 24.2210765872877118
 43.8838724273415579 93.3270564563393350 24.2210765872877118
 66.9930973562161256 29.2514782444598787 24.2210765872877118
  3.9931738766516021  7.5295106934431590 18.0890389682395849
 10.9959693096438951 14.8824458980850647 18.0890389682395849
  3.6430341050019868 21.8852413310773528 18.0890389682395849
 -3.7099010996399207 28.8880367640696569 18.0890389682395849
 17.9987647426361903 22.2353811027269685 18.0890389682395849
 10.6458295379942847 29.2381765357192585 18.0890389682395849
  3.2928943333523701 36.2409719687115626 18.0890389682395849
 -4.0600408712895319 43.2437674017038560 18.0890389682395849
 -11.4129760759314376 50.2465628346961353 18.0890389682395849
 32.3544953802703787 22.5855208743765772 18.0890389682395849
 25.0015601756284873 29.5883163073688777 18.0890389682395849
 17.6486249709865675 36.5911117403611712 18.0890389682395849
 10.2956897663446636 43.5939071733534718 18.0890389682395849
  2.9427545617027562 50.5967026063457581 18.0890389682395849
 -4.4101806429391424 57.5994980393380445 18.0890389682395849
 -11.7631158475810569 64.6022934723303450 18.0890389682395849
 -19.1160510522229714 71.6050889053226314 18.0890389682395849
 39.3572908132626793 29.9384560790184935 18.0890389682395849
 32.0043556086207701 36.9412515120107940 18.0890389682395849
 24.6514204039788609 43.9440469450030804 18.0890389682395849
 17.2984851993369659 50.9468423779953667 18.0890389682395849
  9.9455499946950425 57.9496378109876602 18.0890389682395849
  2.5926147900531369 64.9524332439799537 18.0890389682395849
 -4.7603204145887794 71.9552286769722542 18.0890389682395849
 18.3489045142857812  7.8796504650927766 18.0890389682395849
 53.7130214508968749 30.2885958506680915 18.0890389682395849
 46.3600862462549657 37.2913912836603956 18.0890389682395849
 39.0071510416130707 44.2941867166526961 18.0890389682395849
 31.6542158369711615 51.2969821496449896 18.0890389682395849
 24.3012806323292558 58.2997775826372830 18.0890389682395849
 16.9483454276873324 65.3025730156295481 18.0890389682395849
  9.5954102230454374 72.3053684486218486 18.0890389682395849
  2.2424750184035211 79.3081638816141634 18.0890389682395849
 25.3516999472780746 15.2325856697346822 18.0890389682395849
 60.7158168838891470 37.6415310553100042 18.0890389682395849
 53.3628816792472591 44.6443264883023048 18.0890389682395849
 46.0099464746053570 51.6471219212945982 18.0890389682395849
 38.6570112699634265 58.6499173542868917 18.0890389682395849
 31.3040760653215422 65.6527127872791851 18.0890389682395849
 23.9511408606796188 72.6555082202714857 18.0890389682395849
 16.5982056560377131 79.6583036532637720 18.0890389682395849
  9.2452704513958111 86.6610990862560726 18.0890389682395849
 -3.3597613279903071 14.5323061264354507 18.0890389682395849
 60.3656771122395526 51.9972616929442069 18.0890389682395849
 53.0127419075976576 59.0000571259365074 18.0890389682395849
 45.6598067029557484 66.0028525589287938 18.0890389682395849
 38.3068714983138250 73.0056479919211085 18.0890389682395849
 30.9539362936719336 80.0084434249133807 18.0890389682395849
 23.6010010890300066 87.0112388579056812 18.0890389682395849
 46.7102260179045601 22.9356606460262071 18.0890389682395849
 -11.0628363042818254 35.8908321970619397 18.0890389682395849
 52.6626021359480490 73.3557877635707172 18.0890389682395849
 45.3096669313061398 80.3585831965630177 18.0890389682395849
 37.9567317266642235 87.3613786295552757 18.0890389682395849
 30.6037965220223107 94.3641740625475904 18.0890389682395849
 -18.7659112805733699 57.2493582676884216 18.0890389682395849
 -26.1188464852152720 64.2521537006807080 18.0890389682395849
 68.0687520885310562 30.6387356223177214 18.0890389682395849
  3.3152659310021932  6.2112478810127199 18.9240230873953728
 10.3180613639944863 13.5641830856546264 18.9240230873953728
  2.9651261593525797 20.5669785186469198 18.9240230873953728
 -4.3878090452893286 27.5697739516392168 18.9240230873953728
 17.3208567969867779 20.9171182902965356 18.9240230873953728
  9.9679215923448652 27.9199137232888255 18.9240230873953728
  2.6149863877029667 34.9227091562811154 18.9240230873953728
 -4.7379488169389425 41.9255045892734088 18.9240230873953728
 -12.0908840215808553 48.9283000222657094 18.9240230873953728
 31.6765874346209735 21.2672580619461478 18.9240230873953728
 24.3236522299790643 28.2700534949384377 18.9240230873953728
 16.9707170253371693 35.2728489279307311 18.9240230873953728
  9.6177818206952601 42.2756443609230246 18.9240230873953728
  2.2648466160533474 49.2784397939153180 18.9240230873953728
 -5.0880885885885689 56.2812352269076257 18.9240230873953728
 -12.4410237932304746 63.2840306598999192 18.9240230873953728
 -19.7939589978723838 70.2868260928922126 18.9240230873953728
 38.6793828676132776 28.6201932665880534 18.9240230873953728
 31.3264476629713684 35.6229886995803540 18.9240230873953728
 23.9735124583294485 42.6257841325726474 18.9240230873953728
 16.6205772536875500 49.6285795655649338 18.9240230873953728
  9.2676420490456408 56.6313749985572343 18.9240230873953728
  1.9147068444037352 63.6341704315495349 18.9240230873953728
 -5.4382283602381811 70.6369658645418355 18.9240230873953728
 -12.7911635648800903 77.6397612975341360 18.9240230873953728
 53.0351135052474731 28.9703330382376656 18.9240230873953728
 45.6821783006055639 35.9731284712299555 18.9240230873953728
 38.3292430959636476 42.9759239042222561 18.9240230873953728
 30.9763078913217598 49.9787193372145566 18.9240230873953728
 23.6233726866798399 56.9815147702068430 18.9240230873953728
 16.2704374820379272 63.9843102031991435 18.9240230873953728
  8.9175022773960251 70.9871056361914299 18.9240230873953728
  1.5645670727541194 77.9899010691837304 18.9240230873953728
 24.6737920016286729 13.9143228573042528 18.9240230873953728
 60.0379089382397453 36.3232682428795712 18.9240230873953728
 52.6849737335978503 43.3260636758718647 18.9240230873953728
 45.3320385289559482 50.3288591088641653 18.9240230873953728
 37.9791033243140461 57.3316545418564658 18.9240230873953728
 30.6261681196721405 64.3344499748487664 18.9240230873953728
 23.2732329150302313 71.3372454078410385 18.9240230873953728
 15.9202977103883185 78.3400408408333249 18.9240230873953728
  8.5673625057464236 85.3428362738256254 18.9240230873953728
 -4.0376692736397235 13.2140433140050035 18.9240230873953728
 59.6877691665901438 50.6789988805137810 18.9240230873953728
 52.3348339619482346 57.6817943135060744 18.9240230873953728
 44.9818987573063254 64.6845897464983750 18.9240230873953728
 37.6289635526644162 71.6873851794906614 18.9240230873953728
 30.2760283480225176 78.6901806124829477 18.9240230873953728
 22.9230931433806084 85.6929760454752198 18.9240230873953728
 46.0323180722551513 21.6173978335957777 18.9240230873953728
 -11.7407442499312378 34.5725693846314996 18.9240230873953728
 51.9846941902986259 72.0375249511402558 18.9240230873953728
 44.6317589856567167 79.0403203841325563 18.9240230873953728
 37.2788237810148004 86.0431158171248569 18.9240230873953728
 29.9258885763728841 93.0459112501171290 18.9240230873953728
 -19.4438192262227787 55.9310954552579886 18.9240230873953728
 -26.7967544308646808 62.9338908882502750 18.9240230873953728
 67.3908441428816332 29.3204728098872849 18.9240230873953728
  2.4634217276859660  7.6917010495436857 18.8159890150975393
  9.4662171606782568 15.0446362541855940 18.8159890150975393
  2.1132819560363485 22.0474316871778875 18.8159890150975393
 -5.2396532486055563 29.0502271201701774 18.8159890150975393
 16.4690125936705449 22.3975714588274997 18.8159890150975393
  9.1160773890286428 29.4003668918197860 18.8159890150975393
  1.7631421843867301 36.4031623248120866 18.8159890150975393
 -5.5897930202551702 43.4059577578043658 18.8159890150975393
 -12.9427282248970847 50.4087531907966664 18.8159890150975393
 30.8247432313047440 22.7477112304771154 18.8159890150975393
 23.4718080266628348 29.7505066634694089 18.8159890150975393
 16.1188728220209327 36.7533020964617094 18.8159890150975393
  8.7659376173790218 43.7560975294540100 18.8159890150975393
  1.4130024127371144 50.7588929624462892 18.8159890150975393
 -5.9399327919047877 57.7616883954385756 18.8159890150975393
 -13.2928679965466952 64.7644838284308832 18.8159890150975393
 -20.6458032011886061 71.7672792614231554 18.8159890150975393
 37.8275386642970304 30.1006464351190175 18.8159890150975393
 30.4746034596551283 37.1034418681113110 18.8159890150975393
 23.1216682550132298 44.1062373011036044 18.8159890150975393
 15.7687330503713170 51.1090327340959050 18.8159890150975393
  8.4157978457294007 58.1118281670882055 18.8159890150975393
  1.0628626410875057 65.1146236000804919 18.8159890150975393
 -6.2900725635544035 72.1174190330727640 18.8159890150975393
 16.8191523653201536  8.0418408211933041 18.8159890150975393
 52.1832693019312543 30.4507862067686403 18.8159890150975393
 44.8303340972893380 37.4535816397609267 18.8159890150975393
 37.4773988926474289 44.4563770727532130 18.8159890150975393
 30.1244636880055197 51.4591725057455136 18.8159890150975393
 22.7715284833636140 58.4619679387378142 18.8159890150975393
 15.4185932787217048 65.4647633717301005 18.8159890150975393
  8.0656580740798098 72.4675588047223869 18.8159890150975393
  0.7127228694378935 79.4703542377147016 18.8159890150975393
 23.8219477983124470 15.3947760258352133 18.8159890150975393
 59.1860647349235265 37.8037214114105282 18.8159890150975393
 51.8331295302816102 44.8065168444028359 18.8159890150975393
 44.4801943256397081 51.8093122773951293 18.8159890150975393
 37.1272591209977989 58.8121077103874228 18.8159890150975393
 29.7743239163558933 65.8149031433797234 18.8159890150975393
 22.4213887117139734 72.8176985763719813 18.8159890150975393
 15.0684535070720855 79.8204940093642961 18.8159890150975393
  7.7155183024301728 86.8232894423565824 18.8159890150975393
 -4.8895134769559352 14.6944964825359783 18.8159890150975393
 58.8359249632739250 52.1594520490447451 18.8159890150975393
 51.4829897586320158 59.1622474820370314 18.8159890150975393
 44.1300545539901066 66.1650429150293320 18.8159890150975393
 36.7771193493481974 73.1678383480216183 18.8159890150975393
 29.4241841447062775 80.1706337810139189 18.8159890150975393
 22.0712489400643932 87.1734292140061910 18.8159890150975393
 45.1804738689389254 23.0978510021267311 18.8159890150975393
 -12.5925884532474619 36.0530225531624708 18.8159890150975393
 51.1328499869823929 73.5179781196712128 18.8159890150975393
 43.7799147823404979 80.5207735526635133 18.8159890150975393
 36.4269795776985745 87.5235689856558281 18.8159890150975393
 29.0740443730566689 94.5263644186481145 18.8159890150975393
 -20.2956634295390188 57.4115486237889456 18.8159890150975393
 43.4297750106908609 94.8765041902976947 18.8159890150975393
 66.5389999395654002 30.8009259784182525 18.8159890150975393
  4.1751710984628723  8.8215271319646682 20.0942039427118324
 11.1779665314551604 16.1744623366065738 20.0942039427118324
  3.8250313268132521 23.1772577695988709 20.0942039427118324
 -3.5279038778286536 30.1800532025911608 20.0942039427118324
 18.1807619644474556 23.5273975412484759 20.0942039427118324
 10.8278267598055447 30.5301929742407765 20.0942039427118324
  3.4748915551636355 37.5329884072330771 20.0942039427118324
 -3.8780436494782684 44.5357838402253634 20.0942039427118324
 -11.2309788541201794 51.5385792732176569 20.0942039427118324
 32.5364926020816583 23.8775373128981023 20.0942039427118324
 25.1835573974397491 30.8803327458903922 20.0942039427118324
 17.8306221927978470 37.8831281788826857 20.0942039427118324
 10.4776869881559342 44.8859236118749862 20.0942039427118324
  3.1247517835140250 51.8887190448672726 20.0942039427118324
 -4.2281834211278806 58.8915144778595661 20.0942039427118324
 -11.5811186257698004 65.8943099108518737 20.0942039427118324
 -18.9340538304116919 72.8971053438441459 20.0942039427118324
 39.5392880350739446 31.2304725175399938 20.0942039427118324
 32.1863528304320354 38.2332679505323014 20.0942039427118324
 24.8334176257901404 45.2360633835245807 20.0942039427118324
 17.4804824211482313 52.2388588165168812 20.0942039427118324
 10.1275472165063221 59.2416542495091676 20.0942039427118324
  2.7746120118644129 66.2444496825014681 20.0942039427118324
 -4.5783231927774963 73.2472451154937687 20.0942039427118324
 18.5309017360970607  9.1716669036143017 20.0942039427118324
 53.8950186727081544 31.5806122891896166 20.0942039427118324
 46.5420834680662239 38.5834077221819101 20.0942039427118324
 39.1891482634243289 45.5862031551742035 20.0942039427118324
 31.8362130587824304 52.5889985881665041 20.0942039427118324
 24.4832778541405247 59.5917940211587904 20.0942039427118324
 17.1303426494986084 66.5945894541510768 20.0942039427118324
  9.7774074448566992 73.5973848871433773 20.0942039427118324
  2.4244722402147865 80.6001803201356637 20.0942039427118324
 25.5336971690893471 16.5246021082562038 20.0942039427118324
 60.8978141057004336 38.9335474938315329 20.0942039427118324
 53.5448789010585315 45.9363429268238121 20.0942039427118324
 46.1919436964166223 52.9391383598161056 20.0942039427118324
 38.8390084917747060 59.9419337928084133 20.0942039427118324
 31.4860732871328111 66.9447292258006996 20.0942039427118324
 24.1331380824909090 73.9475246587930002 20.0942039427118324
 16.7802028778489927 80.9503200917853007 20.0942039427118324
  9.4272676732070870 87.9531155247775871 20.0942039427118324
 -3.1777641061790387 15.8243225649569563 20.0942039427118324
 60.5476743340508108 53.2892781314657142 20.0942039427118324
 53.1947391294089016 60.2920735644580077 20.0942039427118324
 45.8418039247670066 67.2948689974502940 20.0942039427118324
 38.4888687201250974 74.2976644304425946 20.0942039427118324
 31.1359335154831918 81.3004598634348952 20.0942039427118324
 23.7829983108412826 88.3032552964271815 20.0942039427118324
 46.8922232397158325 24.2276770845477287 20.0942039427118324
 -10.8808390824705690 37.1828486355834542 20.0942039427118324
 -18.2337742871124711 44.1856440685757477 20.0942039427118324
 45.4916641531173838 81.6505996350845180 20.0942039427118324
 38.1387289484754746 88.6533950680768044 20.0942039427118324
 30.7857937438335618 95.6561905010690907 20.0942039427118324
 -18.5839140587620903 58.5413747062099432 20.0942039427118324
 -25.9368492634039889 65.5441701392022225 20.0942039427118324
 68.2507493103423428 31.9307520608392252 20.0942039427118324
  5.0693927742079037  7.2601325878390695 20.2114045751024634
 12.0721882072001989 14.6130677924809795 20.2114045751024634
  4.7192530025582897 21.6158632254732730 20.2114045751024634
 -2.6336822020836195 28.6186586584655664 20.2114045751024634
 19.0749836401924853 21.9660029971228852 20.2114045751024634
 11.7220484355505743 28.9687984301151822 20.2114045751024634
  4.3691132309086722 35.9715938631074721 20.2114045751024634
 -2.9838219737332334 42.9743892960997584 20.2114045751024634
 -10.3367571783751444 49.9771847290920590 20.2114045751024634
 33.4307142778266879 22.3161427687724938 20.2114045751024634
 26.0777790731847823 29.3189382017647944 20.2114045751024634
 18.7248438685428731 36.3217336347570878 20.2114045751024634
 11.3719086639009621 43.3245290677493884 20.2114045751024634
  4.0189734592590547 50.3273245007416747 20.2114045751024634
 -3.3339617453828474 57.3301199337339540 20.2114045751024634
 -10.6868969500247619 64.3329153667262688 20.2114045751024634
 -18.0398321546666622 71.3357107997185409 20.2114045751024634
 40.4335097108189672 29.6690779734143923 20.2114045751024634
 33.0805745061770722 36.6718734064067036 20.2114045751024634
 25.7276393015351630 43.6746688393989899 20.2114045751024634
 18.3747040968932538 50.6774642723912763 20.2114045751024634
 11.0217688922513446 57.6802597053835910 20.2114045751024634
  3.6688336876094496 64.6830551383758632 20.2114045751024634
 -3.6841015170324631 71.6858505713681637 20.2114045751024634
 -11.0370367216743652 78.6886460043604643 20.2114045751024634
 54.7892403484531840 30.0192177450640187 20.2114045751024634
 47.4363051438112748 37.0220131780563122 20.2114045751024634
 40.0833699391693514 44.0248086110486057 20.2114045751024634
 32.7304347345274564 51.0276040440408991 20.2114045751024634
 25.3774995298855579 58.0303994770331926 20.2114045751024634
 18.0245643252436452 65.0331949100254860 20.2114045751024634
 10.6716291206017395 72.0359903430177724 20.2114045751024634
  3.3186939159598232 79.0387857760100871 20.2114045751024634
 26.4279188448343838 14.9632075641306024 20.2114045751024634
 61.7920357814454633 37.3721529497059137 20.2114045751024634
 54.4391005768035470 44.3749483826982285 20.2114045751024634
 47.0861653721616520 51.3777438156905077 20.2114045751024634
 39.7332301675197428 58.3805392486828154 20.2114045751024634
 32.3802949628778407 65.3833346816751089 20.2114045751024634
 25.0273597582359315 72.3861301146673952 20.2114045751024634
 17.6744245535940152 79.3889255476596958 20.2114045751024634
 10.3214893489521060 86.3917209806519679 20.2114045751024634
 -2.2835424304340060 14.2629280208313567 20.2114045751024634
 61.4418960097958404 51.7278835873401164 20.2114045751024634
 54.0889608051539312 58.7306790203324169 20.2114045751024634
 46.7360256005120362 65.7334744533247175 20.2114045751024634
 39.3830903958701271 72.7362698863170039 20.2114045751024634
 32.0301551912282321 79.7390653193093044 20.2114045751024634
 24.6772199865863122 86.7418607523015908 20.2114045751024634
 47.7864449154608693 22.6662825404221309 20.2114045751024634
 -9.9866174067255216 35.6214540914578706 20.2114045751024634
 -17.3395526113674165 42.6242495244501427 20.2114045751024634
 46.3858858288624418 80.0892050909589130 20.2114045751024634
 39.0329506242205326 87.0920005239512136 20.2114045751024634
 31.6800154195786092 94.0947959569435000 20.2114045751024634
 -17.6896923830170749 56.9799801620843382 20.2114045751024634
 -25.0426275876589770 63.9827755950766175 20.2114045751024634
 69.1449709860873583 30.3693575167136416 20.2114045751024634
  3.1121777648084104  6.2299956396085925 21.3960739248114109
 10.1149731978007029 13.5829308442504999 21.3960739248114109
  2.7620379931587982 20.5857262772427880 21.3960739248114109
 -4.5908972114831110 27.5885217102350815 21.3960739248114109
 17.1177686307930017 20.9358660488924073 21.3960739248114109
  9.7648334261510925 27.9386614818847008 21.3960739248114109
  2.4118982215091851 34.9414569148769871 21.3960739248114109
 -4.9410369831327259 41.9442523478692948 21.3960739248114109
 -12.2939721877746351 48.9470477808615954 21.3960739248114109
 31.4734992684271901 21.2860058205420160 21.3960739248114109
 24.1205640637852881 28.2888012535343094 21.3960739248114109
 16.7676288591433789 35.2915966865266100 21.3960739248114109
  9.4146936545014697 42.2943921195189105 21.3960739248114109
  2.0617584498595640 49.2971875525111969 21.3960739248114109
 -5.2911767547823452 56.2999829855034903 21.3960739248114109
 -12.6441119594242561 63.3027784184957838 21.3960739248114109
 -19.9970471640661600 70.3055738514880773 21.3960739248114109
 38.4762947014194836 28.6389410251839251 21.3960739248114109
 31.1233594967775886 35.6417364581762115 21.3960739248114109
 23.7704242921356688 42.6445318911685121 21.3960739248114109
 16.4174890874937631 49.6473273241608126 21.3960739248114109
  9.0645538828518575 56.6501227571530990 21.3960739248114109
  1.7116186782099483 63.6529181901453924 21.3960739248114109
 -5.6413165264319574 70.6557136231376859 21.3960739248114109
 -12.9942517310738666 77.6585090561299864 21.3960739248114109
 52.8320253390536934 28.9890807968335373 21.3960739248114109
 45.4790901344117700 35.9918762298258201 21.3960739248114109
 38.1261549297698679 42.9946716628181207 21.3960739248114109
 30.7732197251279729 49.9974670958104213 21.3960739248114109
 23.4202845204860637 57.0002625288027076 21.3960739248114109
 16.0673493158441509 64.0030579617949940 21.3960739248114109
  8.7144141112022311 71.0058533947872945 21.3960739248114109
  1.3614789065603325 78.0086488277795951 21.3960739248114109
 24.4707038354348860 13.9330706159001210 21.3960739248114109
 59.8348207720459726 36.3420160014754359 21.3960739248114109
 52.4818855674040634 43.3448114344677293 21.3960739248114109
 45.1289503627621613 50.3476068674600299 21.3960739248114109
 37.7760151581202592 57.3504023004523162 21.3960739248114109
 30.4230799534783429 64.3531977334446310 21.3960739248114109
 23.0701447488364337 71.3559931664369316 21.3960739248114109
 15.7172095441945281 78.3587885994292321 21.3960739248114109
  8.3642743395526367 85.3615840324214759 21.3960739248114109
 -4.2407574398334829 13.2327910726008913 21.3960739248114109
 59.4846810003963640 50.6977466391096456 21.3960739248114109
 52.1317457957544690 57.7005420721019533 21.3960739248114109
 44.7788105911125456 64.7033375050942396 21.3960739248114109
 37.4258753864706506 71.7061329380865402 21.3960739248114109
 30.0729401818287272 78.7089283710788266 21.3960739248114109
 22.7200049771868109 85.7117238040711271 21.3960739248114109
 45.8292299060613715 21.6361455921916495 21.3960739248114109
 -11.9438324161250282 34.5913171432273785 21.3960739248114109
 51.7816060241048532 72.0562727097361631 21.3960739248114109
 44.4286708194629156 79.0590681427284352 21.3960739248114109
 37.0757356148210278 86.0618635757207358 21.3960739248114109
 29.7228004101791186 93.0646590087130505 21.3960739248114109
 -19.6469073924165478 55.9498432138538604 21.3960739248114109
 44.0785310478133283 93.4147987803626449 21.3960739248114109
 67.1877559766878818 29.3392205684831779 21.3960739248114109
  2.2226956351133600  7.7985989677943977 21.2953594582031442
  9.2254910681056490 15.1515341724363068 21.2953594582031442
  1.8725558634637398 22.1543296054285968 21.2953594582031442
 -5.4803793411781667 29.1571250384208867 21.2953594582031442
 16.2282865010979478 22.5044693770782160 21.2953594582031442
  8.8753512964560350 29.5072648100705095 21.2953594582031442
  1.5224160918141294 36.5100602430627958 21.2953594582031442
 -5.8305191128277762 43.5128556760550893 21.2953594582031442
 -13.1834543174696890 50.5156511090473899 21.2953594582031442
 30.5840171387321327 22.8546091487278247 21.2953594582031442
 23.2310819340902341 29.8574045817201181 21.2953594582031442
 15.8781467294483321 36.8602000147124187 21.2953594582031442
  8.5252115248064175 43.8629954477047121 21.2953594582031442
  1.1722763201645066 50.8657908806969985 21.2953594582031442
 -6.1806588844773991 57.8685863136892920 21.2953594582031442
 -13.5335940891193136 64.8713817466815925 21.2953594582031442
 -20.8865292937612139 71.8741771796738931 21.2953594582031442
 37.5868125717244226 30.2075443533697268 21.2953594582031442
 30.2338773670825347 37.2103397863620344 21.2953594582031442
 22.8809421624406255 44.2131352193543208 21.2953594582031442
 15.5280069577987128 51.2159306523466071 21.2953594582031442
  8.1750717531568071 58.2187260853389148 21.2953594582031442
  0.8221365485148979 65.2215215183312012 21.2953594582031442
 -6.5307986561270042 72.2243169513234875 21.2953594582031442
 16.5784262727475422  8.1487387394440312 21.2953594582031442
 51.9425432093586394 30.5576841250193496 21.2953594582031442
 44.5896080047167231 37.5604795580116360 21.2953594582031442
 37.2366728000748139 44.5632749910039294 21.2953594582031442
 29.8837375954329190 51.5660704239962300 21.2953594582031442
 22.5308023907910027 58.5688658569885234 21.2953594582031442
 15.1778671861490828 65.5716612899808098 21.2953594582031442
  7.8249319815071736 72.5744567229730961 21.2953594582031442
  0.4719967768652751 79.5772521559654251 21.2953594582031442
 23.5812217057398392 15.5016739440859226 21.2953594582031442
 58.9453386423509116 37.9106193296612588 21.2953594582031442
 51.5924034377090308 44.9134147626535594 21.2953594582031442
 44.2394682330671145 51.9162101956458457 21.2953594582031442
 36.8865330284252124 58.9190056286381321 21.2953594582031442
 29.5335978237832819 65.9218010616304326 21.2953594582031442
 22.1806626191413976 72.9245964946227190 21.2953594582031442
 14.8277274144994848 79.9273919276150053 21.2953594582031442
  7.4747922098575899 86.9301873606073059 21.2953594582031442
 -5.1302395695285412 14.8013944007866893 21.2953594582031442
 58.5951988707013101 52.2663499672954543 21.2953594582031442
 51.2422636660594009 59.2691454002877478 21.2953594582031442
 43.8893284614174917 66.2719408332800413 21.2953594582031442
 36.5363932567755967 73.2747362662723276 21.2953594582031442
 29.1834580521336875 80.2775316992646282 21.2953594582031442
 21.8305228474917783 87.2803271322569145 21.2953594582031442
 44.9397477763663318 23.2047489203774546 21.2953594582031442
 -12.8333145458200857 36.1599204714131801 21.2953594582031442
 50.8921238944097780 73.6248760379219505 21.2953594582031442
 43.5391886897678688 80.6276714709142368 21.2953594582031442
 36.1862534851259525 87.6304669039065232 21.2953594582031442
 28.8333182804840433 94.6332623368988095 21.2953594582031442
 -20.5363895221116017 57.5184465420396620 21.2953594582031442
 43.1890489181182531 94.9834021085484466 21.2953594582031442
 66.2982738469928137 30.9078238966689725 21.2953594582031442
  4.1111824167792204  8.9011847073550232 22.5856994142773537
 11.1139778497715156 16.2541199119969306 22.5856994142773537
  3.7610426451296046 23.2569153449892205 22.5856994142773537
 -3.5918925595123028 30.2597107779815175 22.5856994142773537
 18.1167732827638090 23.6070551166388398 22.5856994142773537
 10.7638380781218999 30.6098505496311333 22.5856994142773537
  3.4109028734799907 37.6126459826234196 22.5856994142773537
 -3.9420323311619132 44.6154414156157060 22.5856994142773537
 -11.2949675358038242 51.6182368486080065 22.5856994142773537
 32.4725039203979975 23.9571948882884413 22.5856994142773537
 25.1195687157560954 30.9599903212807384 22.5856994142773537
 17.7666335111141933 37.9627857542730354 22.5856994142773537
 10.4136983064722823 44.9655811872653146 22.5856994142773537
  3.0607631018303714 51.9683766202576294 22.5856994142773537
 -4.2921721028115307 58.9711720532499157 22.5856994142773537
 -11.6451073074534452 65.9739674862422305 22.5856994142773537
 -18.9980425120953456 72.9767629192344884 22.5856994142773537
 39.4752993533902909 31.3101300929303505 22.5856994142773537
 32.1223641487483889 38.3129255259226440 22.5856994142773537
 24.7694289441064797 45.3157209589149446 22.5856994142773537
 17.4164937394645669 52.3185163919072380 22.5856994142773537
 10.0635585348226577 59.3213118248995244 22.5856994142773537
  2.7106233301807485 66.3241072578918391 22.5856994142773537
 -4.6423118744611571 73.3269026908841113 22.5856994142773537
 18.4669130544134106  9.2513244790046336 22.5856994142773537
 53.8310299910244865 31.6602698645799627 22.5856994142773537
 46.4780947863825844 38.6630652975722597 22.5856994142773537
 39.1251595817406610 45.6658607305645461 22.5856994142773537
 31.7722243770987802 52.6686561635568466 22.5856994142773537
 24.4192891724568746 59.6714515965491472 22.5856994142773537
 17.0663539678149476 66.6742470295414194 22.5856994142773537
  9.7134187631730384 73.6770424625337341 22.5856994142773537
  2.3604835585311434 80.6798378955260489 22.5856994142773537
 25.4697084874057005 16.6042596836465357 22.5856994142773537
 60.8338254240167657 39.0132050692218684 22.5856994142773537
 53.4808902193748779 46.0160005022141760 22.5856994142773537
 46.1279550147329687 53.0187959352064695 22.5856994142773537
 38.7750198100910666 60.0215913681987558 22.5856994142773537
 31.4220846054491361 67.0243868011910422 22.5856994142773537
 24.0691494008072411 74.0271822341833285 22.5856994142773537
 16.7162141961653283 81.0299776671756433 22.5856994142773537
  9.3632789915234262 88.0327731001679155 22.5856994142773537
 -3.2417527878626893 15.9039801403473096 22.5856994142773537
 60.4836856523671713 53.3689357068560639 22.5856994142773537
 53.1307504477252763 60.3717311398483716 22.5856994142773537
 45.7778152430833529 67.3745265728406650 22.5856994142773537
 38.4248800384414437 74.3773220058329514 22.5856994142773537
 31.0719448337995416 81.3801174388252377 22.5856994142773537
 23.7190096291576289 88.3829128718175525 22.5856994142773537
 46.8282345580321859 24.3073346599380855 22.5856994142773537
 -10.9448277641542155 37.2625062109738110 22.5856994142773537
 -18.2977629687961176 44.2653016439660902 22.5856994142773537
 45.4276754714337443 81.7302572104748606 22.5856994142773537
 38.0747402667918493 88.7330526434671469 22.5856994142773537
 30.7218050621499117 95.7358480764594475 22.5856994142773537
 -18.6479027404457618 58.6210322816003000 22.5856994142773537
 -26.0008379450876639 65.6238277145925935 22.5856994142773537
 68.1867606286586749 32.0104096362295749 22.5856994142773537
  4.8976034876337309  7.2982920327299805 22.7772002240411204
 11.9003989206260243 14.6512272373718844 22.7772002240411204
  4.5474637159841169 21.6540226703641849 22.7772002240411204
 -2.8054714886577941 28.6568181033564784 22.7772002240411204
 18.9031943536183142 22.0041624420137936 22.7772002240411204
 11.5502591489764086 29.0069578750060906 22.7772002240411204
  4.1973239443344994 36.0097533079983876 22.7772002240411204
 -3.1556112603074027 43.0125487409906739 22.7772002240411204
 -10.5085464649493083 50.0153441739829603 22.7772002240411204
 33.2589249912525062 22.3543022136634022 22.7772002240411204
 25.9059897866106041 29.3570976466556992 22.7772002240411204
 18.5530545819687021 36.3598930796479891 22.7772002240411204
 11.2001193773267946 43.3626885126402897 22.7772002240411204
  3.8471841726848766 50.3654839456325831 22.7772002240411204
 -3.5057510319570184 57.3682793786248624 22.7772002240411204
 -10.8586862365989383 64.3710748116171771 22.7772002240411204
 -18.2116214412408368 71.3738702446094635 22.7772002240411204
 40.2617204242448068 29.7072374183053114 22.7772002240411204
 32.9087852196028905 36.7100328512975977 22.7772002240411204
 25.5558500149609955 43.7128282842898983 22.7772002240411204
 18.2029148103190863 50.7156237172821847 22.7772002240411204
 10.8499796056771736 57.7184191502744923 22.7772002240411204
  3.4970444010352786 64.7212145832667716 22.7772002240411204
 -3.8558908036066377 71.7240100162590721 22.7772002240411204
 -11.2088260082485398 78.7268054492513585 22.7772002240411204
 54.6174510618790094 30.0573771899549236 22.7772002240411204
 47.2645158572370931 37.0601726229472206 22.7772002240411204
 39.9115806525951911 44.0629680559395212 22.7772002240411204
 32.5586454479532961 51.0657634889318217 22.7772002240411204
 25.2057102433113904 58.0685589219241081 22.7772002240411204
 17.8527750386694564 65.0713543549163944 22.7772002240411204
 10.4998398340275614 72.0741497879086808 22.7772002240411204
  3.1469046293856593 79.0769452209009813 22.7772002240411204
 26.2561295582602092 15.0013670090215054 22.7772002240411204
 61.6202464948712887 37.4103123945968292 22.7772002240411204
 54.2673112902293866 44.4131078275891227 22.7772002240411204
 46.9143760855874774 51.4159032605814161 22.7772002240411204
 39.5614408809455753 58.4186986935737096 22.7772002240411204
 32.2085056763036661 65.4214941265660030 22.7772002240411204
 24.8555704716617676 72.4242895595583036 22.7772002240411204
 17.5026352670198619 79.4270849925505900 22.7772002240411204
 10.1497000623779492 86.4298804255428763 22.7772002240411204
 -2.4553317170081677 14.3010874657222757 22.7772002240411204
 61.2701067232216872 51.7660430322310390 22.7772002240411204
 53.9171715185797851 58.7688384652233253 22.7772002240411204
 46.5642363139378688 65.7716338982156259 22.7772002240411204
 39.2113011092959667 72.7744293312079122 22.7772002240411204
 31.8583659046540504 79.7772247642002128 22.7772002240411204
 24.5054307000121590 86.7800201971924992 22.7772002240411204
 47.6146556288867018 22.7044419853130321 22.7772002240411204
 -10.1584066932997139 35.6596135363487647 22.7772002240411204
 -17.5113418979416124 42.6624089693410724 22.7772002240411204
 46.2140965422882317 80.1273645358498072 22.7772002240411204
 38.8611613376463225 87.1301599688421078 22.7772002240411204
 31.5082261330044382 94.1329554018343799 22.7772002240411204
 -17.8614816695912282 57.0181396069752466 22.7772002240411204
 -25.2144168742331409 64.0209350399675543 22.7772002240411204
 68.9731816995132192 30.4075169616045464 22.7772002240411204
  2.0491724262988917  8.0221315161877058 23.7756669130314293
  9.0519678592911816 15.3750667208296150 23.7756669130314293
  1.6990326546492733 22.3778621538219085 23.7756669130314293
 -5.6539025499926305 29.3806575868141984 23.7756669130314293
 16.0547632922834751 22.7280019254715242 23.7756669130314293
  8.7018280876415677 29.7307973584638106 23.7756669130314293
  1.3488928829996567 36.7335927914561111 23.7756669130314293
 -6.0040423216422525 43.7363882244484046 23.7756669130314293
 -13.3569775262841546 50.7391836574406980 23.7756669130314293
 30.4104939299176706 23.0781416971211364 23.7756669130314293
 23.0575587252757686 30.0809371301134263 23.7756669130314293
 15.7046235206338558 37.0837325631057197 23.7756669130314293
  8.3516883159919448 44.0865279960980274 23.7756669130314293
  0.9987531113500410 51.0893234290902996 23.7756669130314293
 -6.3541820932918593 58.0921188620826001 23.7756669130314293
 -13.7071172979337721 65.0949142950749007 23.7756669130314293
 -21.0600525025756831 72.0977097280671870 23.7756669130314293
 37.4132893629099570 30.4310769017630278 23.7756669130314293
 30.0603541582680691 37.4338723347553497 23.7756669130314293
 22.7074189536261635 44.4366677677476360 23.7756669130314293
 15.3544837489842436 51.4394632007399224 23.7756669130314293
  8.0015485443423344 58.4422586337322159 23.7756669130314293
  0.6486133397004323 65.4450540667245093 23.7756669130314293
 -6.7043218649414769 72.4478494997168241 23.7756669130314293
 16.4049030639330731  8.3722712878373304 23.7756669130314293
 51.7690200005441739 30.7812166734126507 23.7756669130314293
 44.4160847959022647 37.7840121064049441 23.7756669130314293
 37.0631495912603484 44.7868075393972376 23.7756669130314293
 29.7102143866184534 51.7896029723895381 23.7756669130314293
 22.3572791819765442 58.7923984053818316 23.7756669130314293
 15.0043439773346243 65.7951938383741179 23.7756669130314293
  7.6514087726927329 72.7979892713664043 23.7756669130314293
  0.2984735680508166 79.8007847043587333 23.7756669130314293
 23.4076984969253701 15.7252064924792396 23.7756669130314293
 58.7718154335364389 38.1341518780545670 23.7756669130314293
 51.4188802288945368 45.1369473110468533 23.7756669130314293
 44.0659450242526347 52.1397427440391397 23.7756669130314293
 36.7130098196107184 59.1425381770314402 23.7756669130314293
 29.3600746149688092 66.1453336100237266 23.7756669130314293
 22.0071394103269213 73.1481290430160271 23.7756669130314293
 14.6542042056850086 80.1509244760083277 23.7756669130314293
  7.3012690010431029 87.1537199090005998 23.7756669130314293
 -5.3037627783430059 15.0249269491800064 23.7756669130314293
 58.4216756618868374 52.4898825156887625 23.7756669130314293
 51.0687404572449424 59.4926779486810631 23.7756669130314293
 43.7158052526030261 66.4954733816733494 23.7756669130314293
 36.3628700479611240 73.4982688146656358 23.7756669130314293
 29.0099348433192006 80.5010642476579363 23.7756669130314293
 21.6569996386772985 87.5038596806502369 23.7756669130314293
 44.7662245675518733 23.4282814687707557 23.7756669130314293
 -13.0068377546345335 36.3834530198064954 23.7756669130314293
 50.7186006855953266 73.8484085863152728 23.7756669130314293
 43.3656654809534245 80.8512040193075450 23.7756669130314293
 36.0127302763115154 87.8539994522998455 23.7756669130314293
 28.6597950716695991 94.8567948852921461 23.7756669130314293
 -20.7099127309260709 57.7419790904329773 23.7756669130314293
 43.0155257093038017 95.2069346569417405 23.7756669130314293
 66.1247506381783552 31.1313564450622806 23.7756669130314293
  3.5388533574985379  8.0784939172071439 24.7739266949111183
 10.5416487904908305 15.4314291218490496 24.7739266949111183
  3.1887135858489204 22.4342245548413430 24.7739266949111183
 -4.1642216187929835 29.4370199878336329 24.7739266949111183
 17.5444442234831186 22.7843643264909623 24.7739266949111183
 10.1915090188412165 29.7871597594832522 24.7739266949111183
  2.8385738141993091 36.7899551924755528 24.7739266949111183
 -4.5143613904425948 43.7927506254678320 24.7739266949111183
 -11.8672965950845040 50.7955460584601326 24.7739266949111183
 31.9001748611173177 23.1345040981405639 24.7739266949111183
 24.5472396564754085 30.1372995311328609 24.7739266949111183
 17.1943044518335064 37.1400949641251614 24.7739266949111183
  9.8413692471915972 44.1428903971174549 24.7739266949111183
  2.4884340425496880 51.1456858301097412 24.7739266949111183
 -4.8645011620922105 58.1484812631020276 24.7739266949111183
 -12.2174363667341233 65.1512766960943424 24.7739266949111183
 -19.5703715713760360 72.1540721290866145 24.7739266949111183
 38.9029702941096076 30.4874393027824766 24.7739266949111183
 31.5500350894676913 37.4902347357747772 24.7739266949111183
 24.1970998848257963 44.4930301687670635 24.7739266949111183
 16.8441646801838871 51.4958256017593712 24.7739266949111183
  9.4912294755419815 58.4986210347516575 24.7739266949111183
  2.1382942709000723 65.5014164677439368 24.7739266949111183
 -5.2146409337418334 72.5042119007362373 24.7739266949111183
 17.8945839951327237  8.4286336888567632 24.7739266949111183
 53.2587009317438245 30.8375790744320888 24.7739266949111183
 45.9057657271019082 37.8403745074243858 24.7739266949111183
 38.5528305224599990 44.8431699404166864 24.7739266949111183
 31.1998953178180969 51.8459653734089727 24.7739266949111183
 23.8469601131761912 58.8487608064012591 24.7739266949111183
 16.4940249085342714 65.8515562393935596 24.7739266949111183
  9.1410897038923729 72.8543516723858460 24.7739266949111183
  1.7881544992504601 79.8571471053781465 24.7739266949111183
 24.8973794281250242 15.7815688934986689 24.7739266949111183
 60.2614963647361037 38.1905142790740086 24.7739266949111183
 52.9085611600942087 45.1933097120662950 24.7739266949111183
 45.5556259554522853 52.1961051450585956 24.7739266949111183
 38.2026907508103903 59.1989005780508961 24.7739266949111183
 30.8497555461684847 66.2016960110431683 24.7739266949111183
 23.4968203415265720 73.2044914440354688 24.7739266949111183
 16.1438851368846521 80.2072868770277694 24.7739266949111183
  8.7909499322427536 87.2100823100200557 24.7739266949111183
 -3.8140818471433611 15.0812893501994427 24.7739266949111183
 59.9113565930864738 52.5462449167081900 24.7739266949111183
 52.5584213884445930 59.5490403497005119 24.7739266949111183
 45.2054861838026838 66.5518357826927911 24.7739266949111183
 37.8525509791607675 73.5546312156850774 24.7739266949111183
 30.4996157745188512 80.5574266486773638 24.7739266949111183
 23.1466805698769420 87.5602220816696644 24.7739266949111183
 46.2559054987515026 23.4846438697902151 24.7739266949111183
 -11.5171568234348847 36.4398154208259299 24.7739266949111183
 52.2082816167949630 73.9047709873347003 24.7739266949111183
 44.8553464121530538 80.9075664203270009 24.7739266949111183
 37.5024112075111447 87.9103618533192730 24.7739266949111183
 30.1494760028692355 94.9131572863115878 24.7739266949111183
 -19.2202317997264203 57.7983414914524047 24.7739266949111183
 -26.5731670043683366 64.8011369244447195 24.7739266949111183
 67.6144315693779845 31.1877188460816939 24.7739266949111183
  3.8572818982551427  5.6853006081186468 24.2638976868488143
 10.8600773312474317 13.0382358127605524 24.2638976868488143
  3.5071421266055278 20.0410312457528441 24.2638976868488143
 -3.8457930780363805 27.0438266787451411 24.2638976868488143
 17.8628727642397322 20.3911710174024634 24.2638976868488143
 10.5099375595978231 27.3939664503947569 24.2638976868488143
  3.1570023549559121 34.3967618833870503 24.2638976868488143
 -4.1959328496859989 41.3995573163793438 24.2638976868488143
 -11.5488680543279045 48.4023527493716443 24.2638976868488143
 32.2186034018739207 20.7413107890520685 24.2638976868488143
 24.8656681972320115 27.7441062220443690 24.2638976868488143
 17.5127329925901094 34.7469016550366590 24.2638976868488143
 10.1597977879482002 41.7496970880289524 24.2638976868488143
  2.8068625833062839 48.7524925210212601 24.2638976868488143
 -4.5460726213356146 55.7552879540135464 24.2638976868488143
 -11.8990078259775309 62.7580833870058470 24.2638976868488143
 -19.2519430306194259 69.7608788199981120 24.2638976868488143
 39.2213988348662141 28.0942459936939812 24.2638976868488143
 31.8684636302243156 35.0970414266862747 24.2638976868488143
 24.5155284255823993 42.0998368596785681 24.2638976868488143
 17.1625932209404866 49.1026322926708687 24.2638976868488143
  9.8096580162985774 56.1054277256631693 24.2638976868488143
  2.4567228116566824 63.1082231586554414 24.2638976868488143
 -4.8962123929852339 70.1110185916477349 24.2638976868488143
 -12.2491475976271360 77.1138140246400354 24.2638976868488143
 53.5771294725004239 28.4443857653435934 24.2638976868488143
 46.2241942678585076 35.4471811983358833 24.2638976868488143
 38.8712590632165913 42.4499766313281697 24.2638976868488143
 31.5183238585747034 49.4527720643204773 24.2638976868488143
 24.1653886539327942 56.4555674973127708 24.2638976868488143
 16.8124534492908637 63.4583629303050714 24.2638976868488143
  9.4595182446489687 70.4611583632973435 24.2638976868488143
  2.1065830400070666 77.4639537962896725 24.2638976868488143
 25.2158079688816166 13.3883755844101699 24.2638976868488143
 60.5799249054927031 35.7973209699854920 24.2638976868488143
 53.2269897008508011 42.8001164029777925 24.2638976868488143
 45.8740544962088919 49.8029118359700789 24.2638976868488143
 38.5211192915669898 56.8057072689623794 24.2638976868488143
 31.1681840869250877 63.8085027019546942 24.2638976868488143
 23.8152488822831749 70.8112981349469663 24.2638976868488143
 16.4623136776412586 77.8140935679392527 24.2638976868488143
  9.1093784729993601 84.8168890009315533 24.2638976868488143
 -3.4956533063867559 12.6880960411109474 24.2638976868488143
 60.2297851338430803 50.1530516076196804 24.2638976868488143
 52.8768499292011924 57.1558470406119952 24.2638976868488143
 45.5239147245592832 64.1586424736043028 24.2638976868488143
 38.1709795199173811 71.1614379065965750 24.2638976868488143
 30.8180443152754719 78.1642333395888897 24.2638976868488143
 23.4651091106335592 85.1670287725811761 24.2638976868488143
 46.5743340395081162 21.0914505607016949 24.2638976868488143
 -11.1987282826782799 34.0466221117374417 24.2638976868488143
 52.5267101575515625 71.5115776782461978 24.2638976868488143
 45.1737749529096675 78.5143731112384984 24.2638976868488143
 37.8208397482677441 85.5171685442307847 24.2638976868488143
 30.4679045436258491 92.5199639772230711 24.2638976868488143
 -18.9018032589698208 55.4051481823639236 24.2638976868488143
 -26.2547384636117265 62.4079436153562099 24.2638976868488143
 37.4706999766181355 99.8728991818649945 24.2638976868488143
  2.4526152555218657  6.0404743683266302 25.1520779364791665
  9.4554106885141582 13.3934095729685367 25.1520779364791665
  2.1024754838722490 20.3962050059608266 25.1520779364791665
 -5.2504597207696539 27.3990004389531201 25.1520779364791665
 16.4582061215064570 20.7463447776104459 25.1520779364791665
  9.1052709168645425 27.7491402106027394 25.1520779364791665
  1.7523357122226404 34.7519356435950186 25.1520779364791665
 -5.6005994924192635 41.7547310765873192 25.1520779364791665
 -12.9535346970611762 48.7575265095796198 25.1520779364791665
 30.8139367591406454 21.0964845492600546 25.1520779364791665
 23.4610015544987434 28.0992799822523445 25.1520779364791665
 16.1080663498568342 35.1020754152446415 25.1520779364791665
  8.7551311452149267 42.1048708482369420 25.1520779364791665
  1.4021959405730158 49.1076662812292284 25.1520779364791665
 -5.9507392640688899 56.1104617142215290 25.1520779364791665
 -13.3036744687108044 63.1132571472138295 25.1520779364791665
 -20.6566096733527083 70.1160525802061159 25.1520779364791665
 37.8167321921329389 28.4494197539019638 25.1520779364791665
 30.4637969874910368 35.4522151868942643 25.1520779364791665
 23.1108617828491347 42.4550106198865507 25.1520779364791665
 15.7579265782072202 49.4578060528788370 25.1520779364791665
  8.4049913735653092 56.4606014858711447 25.1520779364791665
  1.0520561689234000 63.4633969188634310 25.1520779364791665
 -6.3008790357185092 70.4661923518557387 25.1520779364791665
 -13.6538142403604112 77.4689877848480251 25.1520779364791665
 52.1724628297671416 28.7995595255515688 25.1520779364791665
 44.8195276251252395 35.8023549585438658 25.1520779364791665
 37.4665924204833232 42.8051503915361664 25.1520779364791665
 30.1136572158414175 49.8079458245284599 25.1520779364791665
 22.7607220111995083 56.8107412575207533 25.1520779364791665
 15.4077868065575991 63.8135366905130539 25.1520779364791665
  8.0548516019157006 70.8163321235053331 25.1520779364791665
  0.7019163972737914 77.8191275564976479 25.1520779364791665
 23.8111413261483413 13.7435493446181685 25.1520779364791665
 59.1752582627594279 36.1524947301934745 25.1520779364791665
 51.8223230581175187 43.1552901631857750 25.1520779364791665
 44.4693878534756095 50.1580855961780614 25.1520779364791665
 37.1164526488337003 57.1608810291703691 25.1520779364791665
 29.7635174441918053 64.1636764621626838 25.1520779364791665
 22.4105822395498890 71.1664718951549418 25.1520779364791665
 15.0576470349079941 78.1692673281472707 25.1520779364791665
  7.7047118302660671 85.1720627611395287 25.1520779364791665
 -4.9003199491200338 13.0432698013189228 25.1520779364791665
 58.8251184911098264 50.5082253678276913 25.1520779364791665
 51.4721832864679172 57.5110208008199777 25.1520779364791665
 44.1192480818260009 64.5138162338122783 25.1520779364791665
 36.7663128771840917 71.5166116668045788 25.1520779364791665
 29.4133776725421896 78.5194070997968652 25.1520779364791665
 22.0604424679002840 85.5222025327891515 25.1520779364791665
 45.1696673967748410 21.4466243209096952 25.1520779364791665
 -12.6033949254115569 34.4017958719454171 25.1520779364791665
 51.1220435148183014 71.8667514384541732 25.1520779364791665
 43.7691083101763780 78.8695468714464738 25.1520779364791665
 36.4161731055344902 85.8723423044387744 25.1520779364791665
 29.0632379008925561 92.8751377374310607 25.1520779364791665
 -20.3064699017030819 55.7603219425719061 25.1520779364791665
 43.4189685385267694 93.2252775090806836 25.1520779364791665
 66.5281934674013371 29.1496992972012130 25.1520779364791665
  2.3223001726144972  5.6701067171774984 23.5036398364846839
  9.3250956056067906 13.0230419218194058 23.5036398364846839
  1.9721604009648850 20.0258373548116957 23.5036398364846839
 -5.3807748036770260 27.0286327878039891 23.5036398364846839
 16.3278910385990805 20.3759771264613150 23.5036398364846839
  8.9749558339571731 27.3787725594536049 23.5036398364846839
  1.6220206293152710 34.3815679924458948 23.5036398364846839
 -5.7309145753266399 41.3843634254381882 23.5036398364846839
 -13.0838497799685509 48.3871588584304817 23.5036398364846839
 30.6836216762332796 20.7261168981109272 23.5036398364846839
 23.3306864715913775 27.7289123311032242 23.5036398364846839
 15.9777512669494648 34.7317077640955105 23.5036398364846839
  8.6248160623075556 41.7345031970878040 23.5036398364846839
  1.2718808576656428 48.7372986300801045 23.5036398364846839
 -6.0810543469762521 55.7400940630723909 23.5036398364846839
 -13.4339895516181684 62.7428894960646844 23.5036398364846839
 -20.7869247562600705 69.7456849290569778 23.5036398364846839
 37.6864171092255731 28.0790521027528328 23.5036398364846839
 30.3334819045836639 35.0818475357451334 23.5036398364846839
 22.9805466999417582 42.0846429687374197 23.5036398364846839
 15.6276114952998384 49.0874384017297203 23.5036398364846839
  8.2746762906579363 56.0902338347220208 23.5036398364846839
  0.9217410860160342 63.0930292677142930 23.5036398364846839
 -6.4311941186258714 70.0958247007065864 23.5036398364846839
 -13.7841293232677806 77.0986201336988870 23.5036398364846839
 52.0421477468597686 28.4291918744024485 23.5036398364846839
 44.6892125422178665 35.4319873073947349 23.5036398364846839
 37.3362773375759502 42.4347827403870355 23.5036398364846839
 29.9833421329340624 49.4375781733793360 23.5036398364846839
 22.6304069282921496 56.4403736063716224 23.5036398364846839
 15.2774717236502404 63.4431690393639087 23.5036398364846839
  7.9245365190083348 70.4459644723561951 23.5036398364846839
  0.5716013143664362 77.4487599053484956 23.5036398364846839
 23.6808262432409826 13.3731816934690162 23.5036398364846839
 59.0449431798520550 35.7821270790443435 23.5036398364846839
 51.6920079752101529 42.7849225120366441 23.5036398364846839
 44.3390727705682437 49.7877179450289304 23.5036398364846839
 36.9861375659263274 56.7905133780212310 23.5036398364846839
 29.6332023612844466 63.7933088110135316 23.5036398364846839
 22.2802671566425339 70.7961042440058321 23.5036398364846839
 14.9273319520006176 77.7988996769981327 23.5036398364846839
  7.5743967473587013 84.8016951099904048 23.5036398364846839
 -5.0306350320274040 12.6729021501697936 23.5036398364846839
 58.6948034082024463 50.1378577166785533 23.5036398364846839
 51.3418682035605372 57.1406531496708538 23.5036398364846839
 43.9889329989186351 64.1434485826631402 23.5036398364846839
 36.6359977942767259 71.1462440156554408 23.5036398364846839
 29.2830625896348025 78.1490394486477271 23.5036398364846839
 21.9301273849929217 85.1518348816400135 23.5036398364846839
 45.0393523138674681 21.0762566697605536 23.5036398364846839
 -12.7337100083189352 34.0314282207963004 23.5036398364846839
 50.9917284319109143 71.4963837873050352 23.5036398364846839
 43.6387932272690193 78.4991792202973500 23.5036398364846839
 36.2858580226271101 85.5019746532896363 23.5036398364846839
 28.9329228179851974 92.5047700862818942 23.5036398364846839
 -20.4367849846104690 55.3899542914227681 23.5036398364846839
 43.2886534556194107 92.8549098579315313 23.5036398364846839
 66.3978783844939784 28.7793316460520749 23.5036398364846839
